21

C          0.88302       -0.87660       -0.40851
C          2.32760       -1.27388       -0.33328
O          3.10966       -0.28296       -0.94031
O          2.72814       -2.31090        0.17566
C          4.51456       -0.43399       -1.00107
C          5.23202       -0.90845        0.10255
C          5.19152       -0.04202       -2.16720
C          6.61731       -1.05474        0.02396
C          6.58522       -0.19486       -2.23341
C          4.52346        0.52314       -3.36869
C          7.29393       -0.70408       -1.14250
O          4.96494        0.37841       -4.49689
O          3.43857        1.27977       -3.10178
H          0.28316       -1.59713        0.15571
H          0.55373       -0.88220       -1.44963
H          0.74260        0.11021        0.03909
H          4.72997       -1.18733        1.02550
H          7.16723       -1.45375        0.87364
H          7.12561        0.08715       -3.13539
H          8.37323       -0.82435       -1.20390
H          3.23378        1.35581       -2.15116
