12

C          1.38307       -0.22160        0.00528
C          0.50674       -1.30662       -0.00792
C          0.88131        1.07982        0.01378
C         -0.87094       -1.09051       -0.01470
C         -0.49656        1.29598        0.01067
C         -1.37286        0.21103       -0.00452
H          2.45654       -0.38989        0.00908
H          0.89782       -2.32064       -0.01276
H          1.56395        1.92555        0.02235
H         -1.55371       -1.93599       -0.02772
H         -0.88776        2.31005        0.02027
H         -2.44637        0.37952       -0.00824
