24

C         -3.24579       -1.13654        0.03301
N         -2.26713       -0.07938        0.00289
C         -2.52376        1.26602       -0.00802
C         -0.90993       -0.22701       -0.00241
N         -1.41047        1.97368       -0.01037
C         -0.08705       -1.38473        0.00198
C         -0.41629        1.04193       -0.00465
O         -0.54383       -2.52410        0.00057
N          1.27596       -1.07919        0.00831
N          0.93561        1.29187        0.00240
C          2.22227       -2.17658        0.02190
C          1.82665        0.21803        0.00435
C          1.42859        2.65734        0.01027
O          3.04998        0.38703        0.00556
H         -4.24999       -0.70624        0.00645
H         -3.11238       -1.70489        0.95720
H         -3.09637       -1.77714       -0.83970
H         -3.52729        1.67312       -0.01054
H          1.73296       -3.15339        0.02363
H          2.84949       -2.09258        0.91558
H          2.86603       -2.10296       -0.86074
H          2.52119        2.69523        0.03834
H          1.04153        3.17405        0.89427
H          1.08555        3.16777       -0.89496
