74

C          3.53473       -1.07805       -4.55581
C          4.06301       -0.74856       -3.16080
C          4.72142        0.64672       -3.17844
C          5.01295       -1.85783       -2.69498
C          5.25677        1.04981       -1.81165
C          5.91653        2.43451       -1.80267
C          6.45576        2.80420       -0.39982
C          7.09000        4.22678       -0.38546
C          7.44968        1.73481        0.08283
C          6.09402        5.37298       -0.72544
C          7.72485        4.70149        0.95312
C          6.53898        6.61360        0.07585
C          6.77334        4.41375        2.14615
C          9.14671        4.17052        1.20930
C          7.88368        6.21291        0.66957
C          9.79626        4.84961        2.40814
C          8.42193        6.98145        1.88705
C          9.79721        6.38869        2.31428
C          8.57745        8.47918        1.59087
C         10.35808        7.07506        3.61348
C          9.39617        9.19481        2.62502
C          9.63813        6.55486        4.88309
C         11.87749        6.74556        3.71112
C         10.17485        8.59512        3.53958
C         12.61611        7.53010        4.79044
C         10.93868        9.41292        4.55806
C         12.42072        9.03315        4.61387
O         13.05716        9.71490        5.69305
H          3.02232       -2.04495       -4.56003
H          4.35075       -1.12184       -5.28551
H          2.82052       -0.31779       -4.88849
H          3.21044       -0.72362       -2.46994
H          3.98655        1.39149       -3.51045
H          5.54172        0.65941       -3.90619
H          5.93738       -1.86340       -3.28226
H          4.54224       -2.84190       -2.79311
H          5.27963       -1.74225       -1.63947
H          5.99629        0.30001       -1.52989
H          4.45215        1.02016       -1.06722
H          5.18135        3.17928       -2.12853
H          6.73687        2.45502       -2.53096
H          5.59974        2.79445        0.28661
H          7.87151        4.24679       -1.15956
H          8.36712        1.74944       -0.51589
H          7.04232        0.72408        0.05373
H          7.70047        1.86350        1.13401
H          5.06153        5.11528       -0.46310
H          6.11435        5.58575       -1.80096
H          5.80702        6.84919        0.85646
H          6.62450        7.49543       -0.56818
H          6.68712        3.34268        2.34695
H          5.75896        4.78298        1.96163
H          7.10650        4.87105        3.08053
H          9.17386        3.10037        1.40665
H          9.77335        4.32825        0.32207
H          8.62151        6.34090       -0.14006
H          9.27936        4.50632        3.30790
H         10.82362        4.47785        2.48645
H          7.71036        6.88951        2.71508
H         10.49030        6.63030        1.49187
H          7.58405        8.94068        1.54443
H          9.04791        8.63443        0.61229
H          9.32339       10.28219        2.60379
H          9.94416        7.09029        5.78717
H          9.86217        5.50002        5.07361
H          8.55114        6.65907        4.80432
H         12.02779        5.67677        3.90486
H         12.36243        6.95467        2.74737
H         12.28536        7.21438        5.78738
H         13.68637        7.29207        4.75229
H         10.48225        9.28015        5.54727
H         10.85765       10.48781        4.35278
H         12.91424        9.35600        3.68938
H         12.63429        9.42321        6.51892
