33

C          2.74396       -1.31618        3.68615
C          2.27098       -1.69067        2.27950
C          2.93362       -0.81073        1.19863
C          0.74586       -1.56867        2.19936
C          4.44260       -0.91378        1.13981
C          5.07833       -2.13341        0.87543
C          5.23479        0.22533        1.32705
C          6.47432       -2.21557        0.82980
C          6.63003        0.14662        1.26655
C          7.26949       -1.07889        1.03507
C          8.78586       -1.18430        0.94983
C          9.52518       -0.25304        1.91170
C          9.26013       -0.96228       -0.48677
O         10.34242        0.59138        1.58179
O          9.21161       -0.46694        3.21397
H          2.24605       -1.93639        4.43915
H          2.52597       -0.26719        3.91211
H          3.82124       -1.47348        3.79836
H          2.52766       -2.74284        2.10496
H          2.64488        0.23603        1.36379
H          2.53949       -1.07643        0.20897
H          0.42427       -0.52272        2.24997
H          0.26534       -2.10817        3.02289
H          0.37163       -1.99346        1.26192
H          4.48847       -3.03042        0.69863
H          4.77149        1.19137        1.51871
H          6.93285       -3.17996        0.61551
H          7.20387        1.06280        1.39987
H          9.08919       -2.19883        1.24451
H          8.95603        0.02161       -0.86349
H          8.84693       -1.72103       -1.16016
H         10.35193       -1.01835       -0.55267
H          8.51346       -1.13853        3.33835
