20

C          1.13361        0.12962       -0.07861
C          2.60352       -0.09274       -0.31431
N          3.37563        0.98874        0.06980
O          3.00382       -1.14795       -0.79939
C          4.77901        1.09431       -0.04126
C          5.55313        0.23054       -0.82140
C          5.41599        2.11548        0.67454
C          6.94583        0.34837       -0.84953
C          6.80930        2.22910        0.65601
C          7.56332        1.33813       -0.09711
O          8.91988        1.46450       -0.06991
H          0.60848       -0.82871       -0.14362
H          0.74098        0.80428       -0.84356
H          0.95945        0.54758        0.91662
H          2.90980        1.73033        0.57960
H          5.09893       -0.54563       -1.43010
H          4.84696        2.81405        1.28185
H          7.51903       -0.34353       -1.45831
H          7.30545        3.00042        1.23806
H          9.30483        0.74265       -0.59462
