15

C          2.48999       -0.00847       -0.01221
C          0.99000        0.00248       -0.00075
C          0.27995        1.20882        0.00171
C          0.28106       -1.20553        0.00084
C         -1.11607        1.20677        0.00316
C         -1.11510       -1.20619        0.00195
C         -1.81313        0.00010        0.00205
H          2.89894        1.00738        0.00355
H          2.85581       -0.50337       -0.91770
H          2.87148       -0.53692        0.86729
H          0.80842        2.15907        0.00104
H          0.81412       -2.15337       -0.00047
H         -1.65946        2.14814        0.00379
H         -1.65744       -2.14776        0.00153
H         -2.89985       -0.00023        0.00118
