14
 energy: -13.665127563728 gnorm: 0.000294476483 xtb: 6.7.1 (unknown)
C            0.90118517939242       -0.05889386137160       -0.03959685157899
C            2.42472033721138       -0.04331280200485       -0.05283857489742
C            2.97579729906684        1.05808926386701       -0.95558180307674
C            4.49933155498202        1.07286465340769       -0.96980713597336
H            0.53095170687276       -0.84969449102056        0.60866478477287
H            0.51319930991794       -0.22659275731162       -1.04210751540755
H            0.51360032984169        0.89129435796216        0.32179548974016
H            2.79446362732591       -1.01108294520481       -0.39970508202709
H            2.79490902584506        0.10647283058451        0.96408269030799
H            2.60677262319021        2.02594728712744       -0.60819805463413
H            2.60489056389797        0.90879368867976       -1.97231425493327
H            4.88808024798577        1.23984734998299        0.03252808047041
H            4.86956481568182        1.86378166946255       -1.61792661368988
H            4.88615337878820        0.12264575583933       -1.33193515907301
