26

C          0.87558        0.05656       -0.00984
C          2.39575        0.05435       -0.03410
C          2.93292       -0.03788       -1.46208
C          4.46236       -0.03915       -1.48224
C          4.99991       -0.13145       -2.91131
C          6.52934       -0.13169       -2.93153
C          7.06651       -0.22289       -4.35958
C          8.58668       -0.22233       -4.38402
H          0.51308        0.12321        1.02072
H          0.47481       -0.86101       -0.45230
H          0.47559        0.91003       -0.56655
H          2.76355       -0.79196        0.55766
H          2.76424        0.96932        0.44418
H          2.55837        0.80839       -2.05082
H          2.55835       -0.95280       -1.93714
H          4.83682       -0.88545       -0.89354
H          4.83670        0.87595       -1.00740
H          4.62492        0.71452       -3.50014
H          4.62610       -1.04686       -3.38598
H          6.90453       -0.97791       -2.34314
H          6.90328        0.78332       -2.45614
H          6.69716        0.62281       -4.95124
H          6.69958       -1.13847       -4.83787
H          8.98580        0.69594       -3.94150
H          8.94919       -0.28816       -5.41463
H          8.98834       -1.07511       -3.82746
