38

C          0.85728       -0.11181        0.04051
C          2.37740       -0.09850        0.01707
C          2.91243        0.44397       -1.30793
C          4.44186        0.45422       -1.32785
C          4.97719        0.99643       -2.65416
C          6.50661        1.00497       -2.67528
C          7.04157        1.54777       -4.00156
C          8.57099        1.55487       -4.02328
C          9.10632        2.09807       -5.34918
C         10.63575        2.10457       -5.37064
C         11.17079        2.64742       -6.69548
C         12.69091        2.65561       -6.72102
H          0.49641       -0.50334        0.99672
H          0.45810       -0.74506       -0.75825
H          0.45405        0.89787       -0.08713
H          2.74833       -1.11718        0.17952
H          2.74440        0.51676        0.84683
H          2.53595        1.46180       -1.46711
H          2.53834       -0.17189       -2.13490
H          4.81808       -0.56361       -1.16840
H          4.81590        1.07054       -0.50125
H          4.60190        2.01469       -2.81287
H          4.60199        0.38088       -3.48077
H          6.88180       -0.01343       -2.51708
H          6.88199        1.62014       -1.84848
H          6.66719        2.56654       -4.15924
H          6.66539        0.93324       -4.82848
H          8.94524        0.53600       -3.86593
H          8.94724        2.16903       -3.19612
H          8.73240        3.11708       -5.50649
H          8.72999        1.48409       -6.17648
H         11.00982        1.08558       -5.21322
H         11.01226        2.71837       -4.54323
H         10.80304        3.66760       -6.85575
H         10.80060        2.03476       -7.52575
H         13.09334        3.28622       -5.92180
H         13.05178        3.04741       -7.67711
H         13.09088        1.64436       -6.59554
