74

C          0.74966       -0.02804       -0.09856
C          2.26976       -0.00803       -0.07852
C          2.80325        0.99156        0.94736
C          4.33264        1.00831        0.96468
C          4.86650        2.00869        1.99128
C          6.39589        2.02534        2.00893
C          6.92950        3.02534        3.03602
C          8.45887        3.04245        3.05339
C          8.99249        4.04221        4.08070
C         10.52188        4.05978        4.09737
C         11.05567        5.05944        5.12465
C         12.58506        5.07710        5.14112
C         13.11886        6.07671        6.16846
C         14.64825        6.09422        6.18508
C         15.18204        7.09383        7.21241
C         16.71142        7.11129        7.22919
C         17.24504        8.11083        8.25672
C         18.77441        8.12859        8.27346
C         19.30802        9.12781        9.30131
C         20.83741        9.14597        9.31751
C         21.37127       10.14499       10.34541
C         22.90065       10.16326       10.36127
C         23.43414       11.16149       11.38847
C         24.95424       11.18271       11.40734
H          0.38983       -0.74979       -0.83850
H          0.34775        0.95595       -0.36039
H          0.34818       -0.31460        0.87869
H          2.63914        0.25064       -1.07770
H          2.63946       -1.01351        0.15393
H          2.42728        0.73088        1.94425
H          2.42737        1.99489        0.71255
H          4.70845        1.26910       -0.03219
H          4.70833        0.00499        1.19969
H          4.49049        1.74801        2.98810
H          4.49096        3.01202        1.75616
H          6.77195        2.28642        1.01224
H          6.77149        1.02195        2.24372
H          6.55373        2.76398        4.03275
H          6.55359        4.02867        2.80150
H          8.83458        3.30408        2.05670
H          8.83486        2.03908        3.28767
H          8.61724        3.78026        5.07749
H          8.61615        5.04551        3.84677
H         10.89709        4.32175        3.10058
H         10.89823        3.05646        4.33120
H         10.68058        4.79737        6.12146
H         10.67922        6.06274        4.89090
H         12.96014        5.33918        4.14431
H         12.96151        4.07378        5.37485
H         12.74367        5.81471        7.16525
H         12.74252        7.08005        5.93464
H         15.02346        6.35622        5.18830
H         15.02458        5.09088        6.41890
H         14.80673        6.83190        8.20917
H         14.80578        8.09717        6.97855
H         17.08675        7.37338        6.23247
H         17.08770        6.10792        7.46298
H         16.86980        7.84860        9.25343
H         16.86858        9.11415        8.02304
H         19.14961        8.39111        7.27681
H         19.15090        7.12521        8.50682
H         18.93318        8.86501       10.29802
H         18.93120       10.13113        9.06823
H         21.21216        9.40886        8.32079
H         21.21421        8.14259        9.55040
H         20.99670        9.88197       11.34218
H         20.99433       11.14836       10.11265
H         23.27539       10.42619        9.36450
H         23.27778        9.15988       10.59383
H         23.06581       10.90072       12.38749
H         23.06339       12.16707       11.15813
H         25.35716       10.19846       11.66660
H         25.31407       11.90306       12.14866
H         25.35472       11.47184       10.43043
