98

C          0.74462        0.03608        0.10151
C          2.26475        0.01996        0.08081
C          2.80021       -0.82156       -1.07731
C          4.32963       -0.83498       -1.09481
C          4.86515       -1.67721       -2.25387
C          6.39456       -1.69141       -2.27167
C          6.92932       -2.53389       -3.43093
C          8.45871       -2.54843       -3.44934
C          8.99273       -3.39207       -4.60810
C         10.52212       -3.40737       -4.62703
C         11.05545       -4.25144       -5.78581
C         12.58484       -4.26694       -5.80558
C         13.11740       -5.11114       -6.96466
C         14.64675       -5.12671       -6.98521
C         15.17898       -5.97107       -8.14429
C         16.70835       -5.98610       -8.16510
C         17.24074       -6.82970       -9.32461
C         18.77010       -6.84452       -9.34558
C         19.30233       -7.68762      -10.50558
C         20.83168       -7.70217      -10.52687
C         21.36424       -8.54482      -11.68708
C         22.89362       -8.55920      -11.70767
C         23.42695       -9.40143      -12.86779
C         24.95634       -9.41566      -12.88751
C         25.49035      -10.25775      -14.04739
C         27.01975      -10.27149      -14.06640
C         27.55451      -11.11374      -15.22583
C         29.08391      -11.12704      -15.24428
C         29.61943      -11.96956      -16.40314
C         31.14885      -11.98249      -16.42099
C         31.68431      -12.82433      -17.57888
C         33.20444      -12.83971      -17.60012
H          0.38341        0.64321        0.93749
H          0.34303       -0.97559        0.21795
H          0.34414        0.46064       -0.82463
H          2.63305       -0.37959        1.03291
H          2.63410        1.04855       -0.00415
H          2.42535       -0.42048       -2.02693
H          2.42468       -1.84836       -0.98972
H          4.70437       -1.23622       -0.14526
H          4.70505        0.19183       -1.18272
H          4.49053       -1.27573       -3.20333
H          4.48932       -2.70389       -2.16615
H          6.76926       -2.09301       -1.32230
H          6.77054       -0.66481       -2.35951
H          6.55441       -2.13245       -4.38031
H          6.55331       -3.56047       -3.34287
H          8.83381       -2.94916       -2.49976
H          8.83481       -1.52199       -3.53834
H          8.61764       -2.99115       -5.55761
H          8.61623       -4.41840       -4.51917
H         10.89726       -3.80820       -3.67752
H         10.89869       -2.38109       -4.71628
H         10.67991       -3.85089       -6.73527
H         10.67894       -5.27773       -5.69629
H         12.96053       -4.66766       -4.85625
H         12.96145       -3.24071       -5.89517
H         12.74145       -4.71044       -7.91391
H         12.74079       -6.13735       -6.87497
H         15.02285       -5.52732       -6.03598
H         15.02336       -4.10052       -7.07510
H         14.80259       -5.57075       -9.09354
H         14.80273       -6.99738       -8.05422
H         17.08469       -6.38697       -7.21605
H         17.08456       -4.95974       -8.25457
H         16.86430       -6.42879      -10.27360
H         16.86462       -7.85611       -9.23520
H         19.14661       -7.24576       -8.39676
H         19.14623       -5.81809       -9.43463
H         18.92554       -7.28650      -11.45433
H         18.92641       -8.71411      -10.41632
H         21.20838       -8.10355       -9.57819
H         21.20755       -6.67563      -10.61574
H         20.98781       -8.14331      -12.63580
H         20.98836       -9.57138      -11.59843
H         23.26990       -8.96075      -10.75891
H         23.26940       -7.53256      -11.79603
H         23.05103       -8.99974      -13.81663
H         23.05116      -10.42809      -12.77956
H         25.33220       -9.81724      -11.93860
H         25.33209       -8.38897      -12.97563
H         25.11472       -9.85621      -14.99639
H         25.11479      -11.28450      -13.95935
H         27.39524      -10.67278      -13.11719
H         27.39518       -9.24470      -14.15454
H         27.17914      -10.71249      -16.17510
H         27.17918      -12.14053      -15.13767
H         29.45919      -11.52786      -14.29476
H         29.45909      -10.10021      -15.33265
H         29.24433      -11.56877      -17.35274
H         29.24437      -12.99645      -16.31478
H         31.52406      -12.38303      -15.47132
H         31.52404      -10.95558      -16.50911
H         31.31545      -12.42558      -18.53105
H         31.31551      -13.85310      -17.49313
H         33.60544      -11.82789      -17.71751
H         33.56564      -13.44726      -18.43579
H         33.60552      -13.26332      -16.67383
