14

C          0.90706       -0.05548       -0.04256
C          2.42733       -0.04413       -0.05194
C          2.97319        1.05913       -0.95621
C          4.49346        1.06929       -0.96703
H          0.53801       -0.85239        0.61060
H          0.50981       -0.22887       -1.04780
H          0.50984        0.89618        0.32478
H          2.79216       -1.02001       -0.39298
H          2.79233        0.09866        0.97185
H          2.60936        2.03510       -0.61433
H          2.60719        0.91714       -1.97975
H          4.89185        1.24181        0.03790
H          4.86250        1.86622       -1.62018
H          4.88953        0.11751       -1.33529
