38
 energy: -38.980259889560 gnorm: 0.000288205807 xtb: 6.7.1 (unknown)
C            0.84110718339909       -0.11549354926097        0.04984422225974
C            2.36440944244318       -0.10162905464148        0.02463011939948
C            2.90714014577891        0.43895553890533       -1.29593843340643
C            4.43317979493943        0.45386248595280       -1.32730197043000
C            4.97616980927606        0.99380719757525       -2.64780900348867
C            6.50228942917017        1.00627240080120       -2.67836915669833
C            7.04589517062148        1.54649055574733       -3.99846883039360
C            8.57201393337777        1.55755136139892       -4.02960431040443
C            9.11500391275555        2.09829958420581       -5.34978244015870
C           10.64104336236324        2.10954289416581       -5.38264512827600
C           11.18377544954201        2.65050818039119       -6.70305706655993
C           12.70707986715379        2.65940562902712       -6.73030162575457
H            0.47629979334624       -0.50359414269245        0.99789991100655
H            0.45240282266505       -0.74200378812204       -0.75001767577220
H            0.44854162040156        0.89025949402564       -0.08332816525796
H            2.73923537477381       -1.11606802476022        0.17938821305915
H            2.73546709666333        0.51585888859689        0.84593931509608
H            2.53297468609939        1.45384212900547       -1.45072117058544
H            2.53530542947818       -0.17789195627953       -2.11764180189564
H            4.80710305725413       -0.56103847924686       -1.17175685134674
H            4.80496292213519        1.07054555973404       -0.50541134758548
H            4.60387796839096        2.00928337511333       -2.80303744304929
H            4.60394980911311        0.37788374977112       -3.46999245291043
H            6.87449590890951       -0.00929390017813       -2.52352177377061
H            6.87462892046643        1.62178225789267       -1.85593746328166
H            6.67450217636241        2.56241930238142       -4.15287197264098
H            6.67274253233120        0.93155127012901       -4.82096248380052
H            8.94333658203887        0.54152716324623       -3.87563028618083
H            8.94520230795248        2.17220359268180       -3.20691182599350
H            8.74333977772029        3.11431989287289       -5.50340311325041
H            8.74096171557357        1.48376430538124       -6.17226036940258
H           11.01284125940401        1.09351818030083       -5.22961998818362
H           11.01524457740894        2.72434603844906       -4.56048678418425
H           10.81205424313035        3.66640819197651       -6.85569443204915
H           10.80961313056150        2.03554720829595       -7.52485542875492
H           13.09893645411354        3.28332613961699       -5.92995513525814
H           13.07188942472174        3.04782703938304       -7.67822530612466
H           13.09649290816353        1.65214328815678       -6.59929054397135
