62

C          0.90930       -0.02834       -0.15090
C          2.42940       -0.04068       -0.12541
C          2.96301       -0.53130        1.22024
C          4.49240       -0.54186        1.24184
C          5.02652       -1.03325        2.58830
C          6.55593       -1.04362        2.60990
C          7.09000       -1.53602        3.95596
C          8.61938       -1.54654        3.97763
C          9.15328       -2.04020        5.32331
C         10.68265       -2.05082        5.34505
C         11.21643       -2.54562        6.69037
C         12.74581       -2.55618        6.71214
C         13.27970       -3.05187        8.05707
C         14.80908       -3.06211        8.07884
C         15.34315       -3.55833        9.42351
C         16.87256       -3.56846        9.44518
C         17.40667       -4.06491       10.78979
C         18.93606       -4.07520       10.81149
C         19.46967       -4.57129       12.15514
C         20.98977       -4.58299       12.18085
H          0.54935        0.32536       -1.12210
H          0.50936        0.63570        0.62204
H          0.50595       -1.03227        0.01582
H          2.80056        0.97094       -0.32691
H          2.79722       -0.68766       -0.93028
H          2.58568       -1.54191        1.41866
H          2.58861        0.11653        2.02223
H          4.86952        0.46887        1.04382
H          4.86662       -1.18960        0.43974
H          4.64950       -2.04403        2.78623
H          4.65223       -0.38561        3.39046
H          6.93295       -0.03270        2.41268
H          6.93026       -1.69070        1.80730
H          6.71289       -2.54693        4.15315
H          6.71573       -0.88897        4.75861
H          8.99651       -0.53548        3.78132
H          8.99372       -2.19297        3.17449
H          8.77609       -3.05124        5.51955
H          8.77898       -1.39383        6.12650
H         11.05985       -1.03964        5.14961
H         11.05698       -2.69660        4.54141
H         10.83928       -3.55684        6.88572
H         10.84208       -1.89994        7.49407
H         13.12292       -1.54482        6.51738
H         13.12018       -3.20135        5.90802
H         12.90277       -4.06335        8.25166
H         12.90517       -2.40688        8.86126
H         15.18596       -2.05055        7.88459
H         15.18360       -3.70676        7.27437
H         14.96632       -4.56991        9.61769
H         14.96863       -2.91372       10.22799
H         17.24937       -2.55684        9.25115
H         17.24706       -4.21294        8.64059
H         17.02977       -5.07648       10.98386
H         17.03224       -3.42036       11.59436
H         19.31317       -3.06370       10.61726
H         19.31069       -4.71965       10.00687
H         19.09897       -5.58392       12.35225
H         19.10138       -3.92791       12.96270
H         21.39020       -5.24331       11.40498
H         21.34972       -4.94092       13.15050
H         21.39263       -3.57811       12.01877
