50
 energy: -51.637891511093 gnorm: 0.000684123674 xtb: 6.7.1 (unknown)
C            0.95038964420810        0.10858480969847       -0.06162809228756
C            2.47407928307373        0.08126173387679       -0.05374421836756
C            3.01585563858680       -1.30741578266778        0.27680195139255
C            4.54196763116410       -1.34196565728307        0.28646793038799
C            5.08343871167166       -2.73069606098597        0.61638080561217
C            6.60964928381878       -2.76360482231088        0.62539240874835
C            7.15237033004381       -4.15187619985032        0.95477873982897
C            8.67856494304276       -4.18372150359445        0.96362895518815
C            9.22174355929585       -5.57191585023819        1.29247645924972
C           10.74793803385065       -5.60374607734588        1.30139207510734
C           11.29065982023751       -6.99229937264207        1.62958661967843
C           12.81687003349573       -7.02513359481206        1.63891460033430
C           13.35834239568453       -8.41432431966056        1.96688281789548
C           14.88445329597959       -8.44877669010511        1.97696739544333
C           15.42623096659375       -9.83805629159630        2.30497207471898
C           16.94991986998498       -9.86523760784077        2.31346359653024
H            0.58560342581355        1.10512053837498       -0.29912770725806
H            0.55943574087992       -0.17746717362343        0.91241784255627
H            0.56100432529874       -0.58573585720481       -0.80306862457503
H            2.84615192413118        0.79753503570163        0.68238027491268
H            2.84770523079573        0.38985187562912       -1.03279586684025
H            2.64330328777102       -2.02380035716355       -0.45930897031157
H            2.64164191434023       -1.61623393585699        1.25580819477656
H            4.91448410552224       -0.62549980317866        1.02259154452129
H            4.91610865580910       -1.03231463983320       -0.69236193868152
H            4.71151914711226       -3.44747493950727       -0.11964077586812
H            4.71013952273182       -3.04062527372040        1.59536611866600
H            6.98158978425136       -2.04695487813315        1.36151866115862
H            6.98292779253005       -2.45338026387235       -0.35350264489757
H            6.78081274032215       -4.86865035556672        0.21859516846727
H            6.77932667242172       -4.46233853545820        1.93367308303029
H            9.05012432625397       -3.46714962619880        1.70000759830220
H            9.05158456933870       -3.87291980672837       -0.01516932225202
H            8.85024295680280       -6.28844732862402        0.55602706972497
H            8.84866507575622       -5.88278522195695        2.27122947570227
H           11.11945709084772       -4.88758764000312        2.03819202318159
H           11.12102005911144       -5.29245730095380        0.32277315536931
H           10.91894183941430       -7.70824505859965        0.89266163749195
H           10.91715982970327       -7.30351123758735        2.60808251509486
H           13.18858326423783       -6.30941511309275        2.37607008943544
H           13.19037450135213       -6.71374885603726        0.66046863525187
H           12.98611583051835       -9.12968128969093        1.22953380125744
H           12.98391135129168       -8.72551503794096        2.94511268938343
H           15.25672333081676       -7.73379139835633        2.71457938080023
H           15.25894858121926       -8.13803538061811        0.99867682729777
H           15.05455616798516      -10.55288533550067        1.56724421232056
H           15.05220882499042      -10.14865485121652        3.28323653999160
H           17.34126697335211       -9.57690828852755        1.34024715222391
H           17.31470708923056      -10.86227819527216        2.54883223147237
H           17.33891062731382       -9.17258118232353        3.05666580883252
