74
 energy: -76.953155359527 gnorm: 0.000131335855 xtb: 6.7.1 (unknown)
C            0.71870529740460       -0.03941643791019       -0.11038677142103
C            2.24215629658768       -0.02136857767739       -0.09201221657597
C            2.78593616514493        0.97420219561483        0.92961311736483
C            4.31195800775129        0.99892392861190        0.95508045347159
C            4.85245543243919        1.99514691299042        1.97770095131515
C            6.37843346425916        2.02043993562946        2.00389385292852
C            6.91872156349212        3.01635879471644        3.02672633628791
C            8.44465946037568        3.04129502267067        3.05202104575216
C            8.98601490984771        4.03665830959920        4.07470276506888
C           10.51195273428901        4.06090084610379        4.09849546649140
C           11.05448786657923        5.05583440313504        5.12089972686039
C           12.58043861560211        5.07947723185743        5.14369810518677
C           13.12348069086944        6.07422015040935        6.16599280679623
C           14.64943140573601        6.09782476990072        6.18882959271525
C           15.19196501140192        7.09264338720427        7.21134656735167
C           16.71790258692720        7.11700406171388        7.23502800446918
C           17.25925530283007        8.11202211780500        8.25804730108127
C           18.78519252564210        8.13764104597428        8.28268326962716
C           19.32547713826224        9.13280070865820        9.30625658795727
C           20.85145401253457        9.15935340699762        9.33123105521728
C           21.39194780728835       10.15441062575531       10.35498795588148
C           22.91796819334809       10.18054373939968       10.37908943254309
C           23.46174492834551       11.17472562579195       11.40206813349845
C           24.98519450604631       11.19414654020635       11.41911399889956
H            0.35165602736212       -0.75394231853920       -0.84357338909478
H            0.32899319794851        0.94407423815241       -0.36439934014519
H            0.32911790883122       -0.31878647572601        0.86625372799406
H            2.61420098835536        0.24185684228856       -1.08493220154295
H            2.61431009896960       -1.02073148360847        0.14541404627558
H            2.41298134043308        0.71101865361570        1.92244671938686
H            2.41304724708959        1.97351860847142        0.69212911009935
H            4.68564232950864        1.26228863781377       -0.03744444629883
H            4.68555204512505       -0.00016102169365        1.19249307821493
H            4.47910869711356        1.73188337725808        2.97031278343826
H            4.47928960912065        2.99434269044853        1.74036647631009
H            6.75214929006162        2.28410878833312        1.01154732494539
H            6.75197097393496        1.02138411163818        2.24115753098226
H            6.54564526873534        2.75271633516029        4.01930851588885
H            6.54540191963556        4.01556857981408        2.78981894483372
H            8.81770075215010        3.30511961936390        2.05947329790140
H            8.81798392443031        2.04202559926998        3.28867055273961
H            8.61368497748539        3.77277933116865        5.06749776602329
H            8.61279593019338        5.03605249840320        3.83843333325320
H           10.88413682308783        4.32478283588756        3.10563982679659
H           10.88506405823268        3.06141251662498        4.33456137512140
H           10.68270520545335        4.79195181823279        6.11390197387310
H           10.68149427160054        6.05541042604307        4.88503153586667
H           12.95214895883432        5.34335635329980        4.15066482442004
H           12.95336867204730        4.07985210204226        5.37947052985151
H           12.75174034814989        5.81035820006580        7.15901950530890
H           12.75058014225613        7.07385213429737        5.93020316664919
H           15.02124516875182        6.36179259255812        5.19586162733102
H           15.02239482099362        5.09821730348768        6.42461219546861
H           14.81986911729545        6.82858439873911        8.20418818528870
H           14.81876389017359        8.09213992480928        6.97545725412072
H           17.09012456440688        7.38129706687677        6.24230243350868
H           17.09123140481918        6.11755310730975        7.47088266086655
H           16.88675935003793        7.84746286636884        9.25060414917372
H           16.88538345718698        9.11126039529693        8.02213092826238
H           19.15768989613557        8.40244234012005        7.29019194239924
H           19.15909338418910        7.13837448590200        8.51843093959510
H           18.95279202130154        8.86763415226408       10.29859164480512
H           18.95090651264293       10.13182400390727        9.07048931123138
H           21.22375204084943        9.42450960647945        8.33872920426748
H           21.22567087189326        8.16010251092202        9.56667156064644
H           21.01943471803968        9.88904720142993       11.34742097989899
H           21.01718068574513       11.15352928457946       10.11957513780515
H           23.28975418855437       10.44592764407478        9.38640337574622
H           23.29202765410586        9.18114347868535       10.61437053799949
H           23.09083615377164       10.90931237280762       12.39483082628852
H           23.08845403724836       12.17418236390900       11.16683267160701
H           25.37603849155664       10.21053649568228       11.67091606379745
H           25.35224128913897       11.90762097649308       12.15332508225750
H           25.37365135201149       11.47572368401281       10.44265717977350
