50

C          0.97189        0.09617       -0.05871
C          2.49201        0.06934       -0.05090
C          3.02589       -1.32394        0.28076
C          4.55527       -1.34662        0.28767
C          5.08967       -2.74105        0.61886
C          6.61907       -2.76363        0.62533
C          7.15353       -4.15807        0.95619
C          8.68292       -4.18054        0.96287
C          9.21739       -5.57509        1.29328
C         10.74678       -5.59755        1.29998
C         11.28124       -6.99229        1.62957
C         12.81064       -7.01478        1.63644
C         13.34503       -8.40967        1.96568
C         14.87442       -8.43224        1.97304
C         15.40830       -9.82613        2.30213
C         16.92842       -9.85282        2.31053
H          0.61178        1.10150       -0.29856
H          0.56953       -0.18433        0.91994
H          0.57109       -0.59563       -0.80646
H          2.86060        0.79426        0.68417
H          2.86219        0.38607       -1.03291
H          2.65099       -2.04577       -0.45509
H          2.64927       -1.63775        1.26196
H          4.93001       -0.62520        1.02396
H          4.93173       -1.03250       -0.69346
H          4.71477       -3.46251       -0.11731
H          4.71350       -3.05512        1.60011
H          6.99399       -2.04231        1.36162
H          6.99523       -2.44936       -0.35586
H          6.77877       -4.87937        0.21980
H          6.77725       -4.47243        1.93731
H          9.05769       -3.45946        1.69947
H          9.05919       -3.86590       -0.01816
H          8.84264       -6.29612        0.55662
H          8.84110       -5.88980        2.27428
H         11.12150       -4.87692        2.03705
H         11.12309       -5.28229        0.31917
H         10.90657       -7.71287        0.89243
H         10.90482       -7.30760        2.61033
H         13.18528       -6.29437        2.37377
H         13.18707       -6.69925        0.65576
H         12.97059       -9.12997        1.22815
H         12.96830       -8.72535        2.94620
H         15.24903       -7.71182        2.71041
H         15.25133       -8.11650        0.99257
H         15.04010      -10.54960        1.56543
H         15.03773      -10.14490        3.28334
H         17.33120       -9.56981        1.33278
H         17.28853      -10.85872        2.54800
H         17.32880       -9.16288        3.06021
