8
 energy: -7.336370572238 gnorm: 0.000323071892 xtb: 6.7.1 (unknown)
C            1.04301379306237       -0.06538938377956       -0.06165952174133
C            2.56468602601272       -0.06538783773849       -0.06165794494118
H            0.66045840622825       -0.47340604378059       -0.99450769614938
H            0.66045594628348        0.94648821475462        0.05141187520489
H            0.66045694534844       -0.66925174092187        0.75811639445181
H            2.94724323533700        0.53847332201442       -0.88143458157503
H            2.94724397456293       -1.07726573488666       -0.17472834729195
H            2.94724167316480        0.34262920433811        0.87118982204218
