98
 energy: -102.268411868801 gnorm: 0.000267751983 xtb: 6.7.1 (unknown)
C            0.70911785671959        0.04840644832674        0.11998990120080
C            2.23248078510225        0.03337763670072        0.09920375144667
C            2.77691508162123       -0.80447437914907       -1.05489761251465
C            4.30288824942827       -0.82486534215953       -1.08237591765654
C            4.84474140147436       -1.66373076030558       -2.23676514087546
C            6.37062817632245       -1.68475764345913       -2.26410601650034
C            6.91205298746342       -2.52446372920655       -3.41789679093151
C            8.43785583471703       -2.54555771540790       -3.44430224127689
C            8.97990516406641       -3.38543717318634       -4.59748966630881
C           10.50566200431597       -3.40588404051485       -4.62336031681424
C           11.04787243331656       -4.24568954843943       -5.77640321322352
C           12.57355355584888       -4.26587466634744       -5.80295839371049
C           13.11460898026103       -5.10562469281571       -6.95653792274971
C           14.64019363167056       -5.12611841203017       -6.98470366493262
C           15.17965020204440       -5.96589148751082       -8.13900771867846
C           16.70517030596470       -5.98698685248612       -8.16828488743534
C           17.24391299858576       -6.82691897071051       -9.32280638663412
C           18.76943296096410       -6.84809557335211       -9.35202614268616
C           19.30888733933687       -7.68774721188860      -10.50641969706188
C           20.83447174999328       -7.70827701516181      -10.53456326485897
C           21.37552382136498       -8.54717644355422      -11.68876334106029
C           22.90120466343409       -8.56656786460865      -11.71590153767045
C           23.44341095742010       -9.40465700951736      -12.87019485555596
C           24.96916789784698       -9.42349161131023      -12.89724398160447
C           25.51121258303216      -10.26137148280245      -14.05188739293059
C           27.03701584869322      -10.28069116565733      -14.07958850300429
C           27.57843628372141      -11.11906274986664      -15.23435169246444
C           29.10432288108837      -11.13921049665739      -15.26233730357721
C           29.64617226386225      -11.97818780169359      -16.41664724942747
C           31.17214518635964      -11.99870348683510      -16.44403985160967
C           31.71657580904728      -12.83772723399851      -17.59729145858799
C           33.23993843789638      -12.85348350044382      -17.61755397800157
H            0.34197886918840        0.64985212917511        0.94844633480893
H            0.31957451524577       -0.96149018589929        0.22968751109321
H            0.31950293535143        0.46542764378687       -0.80627097672936
H            2.60461630144144       -0.37006077160778        1.04385901589416
H            2.60458673441459        1.05654512660758        0.00819832729381
H            2.40460035393284       -0.40110379571189       -1.99975045560211
H            2.40423255213531       -1.82768435657200       -0.96419889850934
H            4.67579890328359       -1.22789443638799       -0.13758969835524
H            4.67626459916290        0.19807052164863       -1.17349076930264
H            4.47261285288877       -1.26068309634775       -3.18178314186004
H            4.47159535788731       -2.68671555095156       -2.14589844239696
H            6.74318166224648       -2.08742708848524       -1.31910613051180
H            6.74431300141334       -0.66206362142349       -2.35583324957681
H            6.54027092334940       -2.12182542977418       -4.36320158432424
H            6.53854932615077       -3.54725130438209       -3.32654201337692
H            8.80978101022887       -2.94800034684133       -2.49897441587582
H            8.81155624416962       -1.52288292981852       -3.53603660768454
H            8.60830545844620       -2.98328728994193       -5.54306522492230
H            8.60678091830706       -4.40833274911391       -4.50590852105780
H           10.87749516011456       -3.80807430491727       -3.67790018227509
H           10.87896961674896       -2.38307667460362       -4.71512390869769
H           10.67585757678185       -3.84376079970517       -6.72190560510267
H           10.67501162183128       -5.26865203346256       -5.68455471293899
H           12.94598518670761       -4.66813295474282       -4.85776951088226
H           12.94673396406262       -3.24304025198009       -5.89488097005572
H           12.74164680179757       -4.70353433572392       -7.90159851695200
H           12.74161140361286       -6.12850725332238       -6.86435914306695
H           15.01354848029211       -5.52859927249401       -6.03997338648632
H           15.01351837823667       -4.10336191759491       -7.07690524849025
H           14.80602355255687       -5.56338615488618       -9.08362859162178
H           14.80620520743317       -6.98859925261946       -8.04669785995107
H           17.07894782335279       -6.38955424825848       -7.22375422938249
H           17.07875297664638       -4.96434194782801       -8.26071370791660
H           16.87019224100053       -6.42430591140194      -10.26734102280230
H           16.87027285991914       -7.84954584862418       -9.23041961245486
H           19.14300808737102       -7.25072434309981       -8.40743863669703
H           19.14293097379691       -5.82539469592304       -9.44420924678728
H           18.93558447675276       -7.28509514510835      -11.45109925870157
H           18.93550847179398       -8.71049836448264      -10.41439548755184
H           21.20743472828276       -8.11101591223546       -9.58978121828932
H           21.20747121879972       -6.68533035600470      -10.62604090717149
H           21.00258322715361       -8.14454067158130      -12.63359302615850
H           21.00284893825867       -9.57023497934852      -11.59730861916727
H           23.27381512946114       -8.96940535265990      -10.77102247454241
H           23.27347327267089       -7.54329391785421      -11.80669552498328
H           23.07047771865219       -9.00184166190575      -13.81495653422660
H           23.07119932590879      -10.42793474163720      -12.77923866120581
H           25.34191312605584       -9.82641517986237      -11.95244923522819
H           25.34115057083132       -8.40009331655402      -12.98785079416373
H           25.13802229910985       -9.85825718173599      -14.99642910141960
H           25.13877338539745      -11.28458566742020      -13.96103183542913
H           27.41001415200967      -10.68357082672803      -13.13486371791553
H           27.40930733358318       -9.25742754773190      -14.17053743714031
H           27.20520524648581      -10.71588209404582      -16.17886325663702
H           27.20542543433804      -12.14206214796638      -15.14325915281978
H           29.47701945254909      -11.54182891024598      -14.31735677363190
H           29.47690482335914      -10.11605876172004      -15.35360289668600
H           29.27328197766083      -11.57531181944826      -17.36150379380334
H           29.27277273689925      -13.00110279969727      -16.32536324408652
H           31.54434487993493      -12.40125624372931      -15.49879066722613
H           31.54494578696823      -10.97561902897107      -16.53564035842993
H           31.34491814314324      -12.43492230675754      -18.54240289213343
H           31.34398919872173      -13.86065521412436      -17.50554114528327
H           33.63000334487384      -11.84386568979295      -17.72794857042338
H           33.60707427535279      -13.45579360294165      -18.44538350587753
H           33.62903456050041      -13.26992884843062      -16.69081438841331
