62
 energy: -64.295523177562 gnorm: 0.000294618953 xtb: 6.7.1 (unknown)
C            0.88364307117424       -0.02324030646277       -0.16478061184388
C            2.40721674705608       -0.03525935445447       -0.13987029356929
C            2.94957753495916       -0.52415460559525        1.20088995805317
C            4.47559111188599       -0.53886784380836        1.23399675426855
C            5.01630886386128       -1.02840794609670        2.57501670852111
C            6.54236259927904       -1.04264580277897        2.60719070563509
C            7.08395488537674       -1.53295765984479        3.94741934121770
C            8.60997157813742       -1.54684285234780        3.97836061328695
C            9.15229318767468       -2.03820401493474        5.31783755092396
C           10.67827850360003       -2.05199321955303        5.34822620833998
C           11.22080777314666       -2.54442973671481        6.68720551701963
C           12.74679294831992       -2.55816765479765        6.71761270072351
C           13.28911213549790       -3.05152238121374        8.05635785072216
C           14.81512911038772       -3.06525218146616        8.08735431112671
C           15.35671738466213       -3.55928813014240        9.42621609088519
C           16.88277133563999       -3.57337862136585        9.45844213320418
C           17.42348349640859       -4.06782385119987       10.79766347384830
C           18.94949751993907       -4.08231624045739       10.83084802418622
C           19.49185261403971       -4.57663462338249       12.16962051816535
C           21.01542730702181       -4.58812752088783       12.19471952828848
H            0.51786959399018        0.32744873670591       -1.12709553942642
H            0.49524939229177        0.63374068006076        0.61055003986308
H            0.49203148740250       -1.02346539784195        0.00785116197027
H            2.78147481709212        0.97260495373183       -0.33384944818939
H            2.77825865816900       -0.68409211806545       -0.93663397213795
H            2.57484646709327       -1.53209554790007        1.39486076876425
H            2.57773145800202        0.12446948537130        1.99776362455660
H            4.85070212626091        0.46900898596202        1.04024795028778
H            4.84780501523756       -1.18706993108631        0.43690412334065
H            4.64203757903601       -2.03648728018385        2.76898058491450
H            4.64473239339570       -0.38042504161417        3.37249346669991
H            6.91681181210658       -0.03451552983738        2.41391033577237
H            6.91406536360851       -1.69014798280064        1.80939372386291
H            6.70997128050518       -2.54121699306812        4.14087717999352
H            6.71272305058558       -0.88560695062097        4.74553816313636
H            8.98404870577273       -0.53847503884730        3.78566679489305
H            8.98121816760333       -2.19358827443175        3.17975317849621
H            8.77842684935021       -3.04664522305846        5.51055265672438
H            8.78126096880281       -1.39156717055324        6.11662277516331
H           11.05221210668642       -1.04343952378008        5.15624369755196
H           11.04930740344406       -2.69806225870737        4.54897466327924
H           10.84694879249633       -3.55303699584937        6.87906769875257
H           10.84970374392042       -1.89847922084713        7.48651431150141
H           13.12064108018877       -1.54944849550601        6.52633725943840
H           13.11784594036719       -3.20366134208831        5.91790938402442
H           12.91519994678228       -4.06027145122719        8.24738250187472
H           12.91769872316070       -2.40614706973593        8.85599207298984
H           15.18899725208982       -2.05641687969500        7.89670891291767
H           15.18647953674466       -3.71034489595833        7.28746122054536
H           14.98244487643534       -4.56804911324343        9.61653540212814
H           14.98483462734139       -2.91418159463222       10.22586545220685
H           17.25689917038884       -2.56453508852533        9.26821882768804
H           17.25449577062935       -4.21836110118420        8.65860349446360
H           17.04859696267708       -5.07651767651977       10.98756217028141
H           17.05104077100361       -3.42273291799395       11.59716823928605
H           19.32401387745929       -3.07349781240399       10.64107328632911
H           19.32156285446568       -4.72756017587192       10.03133590753644
H           19.11798437218421       -5.58546529483846       12.35928171102185
H           19.12041602817922       -3.93132790351276       12.96905903201220
H           21.40421625681332       -5.24155869746141       11.41659208230475
H           21.38119606992387       -4.94285813895430       13.15555373555420
H           21.40664894224404       -3.58699616588059       12.02651428462330
