26
 energy: -26.322633818937 gnorm: 0.000762377360 xtb: 6.7.1 (unknown)
C            0.86421485222464        0.05692335349403       -0.00294031683232
C            2.38792483741878        0.05469108628754       -0.02883817175023
C            2.93263294433371       -0.03726167404251       -1.45237492473075
C            4.45901806087755       -0.03930482422946       -1.48499061450325
C            5.00324896049571       -0.13114700381076       -2.90856599442635
C            6.52963412577499       -0.13218757204931       -2.94124670494271
C            7.07434149456499       -0.22321141012106       -4.36484324980815
C            8.59805029461534       -0.22289609135351       -4.39090536755017
H            0.49823558126176        0.12295414402022        1.01886565308429
H            0.47429310650981       -0.85519927598624       -0.44932694304424
H            0.47495749367430        0.90445618742639       -0.56279375532591
H            2.75929133126440       -0.79114605582017        0.55423317629760
H            2.75991877254392        0.96813424711926        0.44081164001615
H            2.56025076545796        0.80834310300782       -2.03554681956558
H            2.56027125887573       -0.95085481090799       -1.92194479156135
H            4.83109516279550       -0.88470326326442       -0.90123018520813
H            4.83095610611347        0.87422004102121       -1.01482408155651
H            4.63065946075849        0.71395314430228       -3.49243770955027
H            4.63182364883028       -1.04495309642455       -3.37858357509149
H            6.90265048684883       -0.97770868955689       -2.35836288979384
H            6.90136135646837        0.78152521140137       -2.47140162864035
H            6.70153037262682        0.62205726434252       -4.94782072700335
H            6.70379198215587       -1.13722907165954       -4.83451405824052
H            8.98647332208233        0.68986342452340       -3.94451278687743
H            8.96402921346253       -0.28824182514893       -5.41275543714635
H            8.98880500796392       -1.06979654257069       -3.83113973624878
