21
 energy: -39.622405837985 gnorm: 0.000301363025 xtb: 6.7.1 (unknown)
C            1.11189562006258        0.85168238798683       -0.35014381061068
C            2.43602232552434        1.32822231916016        0.16071737380747
O            2.64719301581599        2.41474054235381        0.64570724327358
O            3.37592096596059        0.38661152146126        0.04043713295400
C            4.69521156925097        0.68646009129870        0.40199599402899
C            5.61437502305697        0.81085291566953       -0.63023936077566
C            6.94503305359103        1.05399814131383       -0.34700393432160
C            7.36254651751813        1.16572777391832        0.96897864660634
C            6.44808631665331        1.02891346843928        1.99562553712556
C            5.10018542455856        0.80194212433162        1.72914945122512
C            4.19064770944829        0.61876318866455        2.91834997141158
O            4.33968325948929       -0.29249856923476        3.68320573550592
O            3.25794860976585        1.55015473064276        3.10804009722491
H            0.52315549368036        1.69969702633533       -0.68737225353271
H            0.58566791770503        0.36964788446947        0.47300389844527
H            1.24735987177928        0.12684765991190       -1.14691173572245
H            5.26999734263965        0.71039288531757       -1.64796418676145
H            7.65389440566361        1.15216845930765       -1.15453373943512
H            8.40102122631911        1.35087084031258        1.19530676893111
H            6.76396235459768        1.09570988997056        3.02547764993915
H            3.18065197691940        2.18653471836901        2.36687352068067
