21

C          1.12887        0.88590       -0.36073
C          2.46931        1.30765        0.15995
O          2.71819        2.41446        0.62870
O          3.35207        0.23841        0.11414
C          4.65881        0.60714        0.44825
C          5.55470        0.76461       -0.61235
C          6.88696        1.08365       -0.34728
C          7.32734        1.23072        0.96941
C          6.43569        1.05687        2.02999
C          5.09607        0.74761        1.76893
C          4.20534        0.54673        2.92238
O          4.34111       -0.37225        3.70841
O          3.30138        1.53859        3.05917
H          0.60474        1.76419       -0.74855
H          0.54871        0.43008        0.44460
H          1.24714        0.17831       -1.18648
H          5.22243        0.63585       -1.63878
H          7.58790        1.20770       -1.16957
H          8.37001        1.46827        1.16955
H          6.78617        1.15569        3.05549
H          3.30752        2.20726        2.33347
