12
 energy: -15.879640656482 gnorm: 0.000042852566 xtb: 6.7.1 (unknown)
C            1.36676285852327       -0.21687489203907        0.00374957858988
C            0.49784335775688       -1.29484984801090       -0.00336345880783
C           -0.87019043308028       -1.08133358686260       -0.00405077351554
C           -1.36930288525277        0.21015627640919        0.00238071332781
C           -0.50038245419864        1.28813183450453        0.00949603464526
C            0.86764973229329        1.07461575187917        0.01017923111492
H            2.43429258682875       -0.38348847052744        0.00427181044743
H            0.88731823156788       -2.30265113543091       -0.00839947894521
H           -1.54824074925891       -1.92252124935621       -0.00962013259909
H           -2.43683236586935        0.37677138282824        0.00184089127493
H           -0.88986019634116        2.29593214414850        0.01451380589588
H            1.54570231703104        1.91580179245749        0.01573177857155
