12

C          1.37687       -0.21845        0.00374
C          0.50154       -1.30440       -0.00348
C         -0.87662       -1.08929       -0.00410
C         -1.37941        0.21173        0.00236
C         -0.50407        1.29768        0.00951
C          0.87407        1.08257        0.01025
H          2.45060       -0.38602        0.00434
H          0.89326       -2.31804       -0.00856
H         -1.55860       -1.93537       -0.00958
H         -2.45314        0.37931        0.00183
H         -0.89580        2.31132        0.01455
H          1.55606        1.92865        0.01587
