96
 energy: -114.093344432725 gnorm: 0.000646008802 xtb: 6.7.1 (unknown)
C            0.97025312774123       -1.29649864812195       -2.15271555183420
C            0.05859366058867       -0.58328581399450       -1.19637819832385
C           -0.62195497286316       -1.19106575934374       -0.21340324688742
C           -1.63937133143660       -0.46512394181451        0.66157211640170
C           -1.90686273637367        0.95959263440599        0.15411029643668
C           -0.63480767583659        1.65281866820474       -0.30657858040629
C           -0.07068074421079        0.88506166339728       -1.49168800933113
C           -2.98390404508872       -1.20919673619016        0.66944942627199
C           -1.09064588864809       -0.42267148777063        2.09464310279659
C           -0.42485230919288       -2.59727766917015        0.11763020419420
C            0.77966200453029       -3.18238328710168        0.25592108656569
C            1.04630243230384       -4.55758734897485        0.58387153352094
C            0.07952432688072       -5.51780496208665        0.59175674636975
C            0.28064449864095       -6.88935087316009        0.88360145725852
C           -0.72930840331975       -7.80134791955050        0.87393281185583
C           -0.64116550316277       -9.20051307796426        1.13333751441304
C            0.54447499117129       -9.83596335806216        1.38835568183999
C            0.71215071220137      -11.21437304688732        1.63943855073679
C            1.92976094879909      -11.78556245237270        1.86874264801636
C            2.10477068316695      -13.16413597597885        2.11631415209955
C            3.27312660668510      -13.83752385509404        2.35115323739022
C            4.61473979246465      -13.16567671393417        2.38009701072545
C            3.22035585403166      -15.24453304642085        2.58011311860328
C            4.27915408700542      -16.05898219300992        2.82904662516194
C            4.13731518309322      -17.45305155524708        3.05070824733494
C            5.11710675572457      -18.36363422071475        3.30640351133620
C            6.57324750788579      -18.01219070014193        3.38599283658318
C            4.74370897318619      -19.73767811558061        3.51522097419843
C            5.57776774496045      -20.74257002779947        3.83742998877339
C            5.16163847432408      -22.12218100614638        4.06768946556770
C            4.33011644880631      -22.77083703609878        3.24050324740196
C            3.82546013113223      -24.16020148234036        3.51524029128691
C            3.94832897459905      -24.52394405734889        4.98650881421194
C            5.37422566917069      -24.24420641344170        5.43314156364892
C            5.72966801470493      -22.75324356657822        5.33553618208282
C            7.26257859433456      -22.64491651484956        5.36054455013479
C            5.16207673102327      -21.99453779070256        6.54331952063450
C            3.85776664713464      -22.22310990007682        1.92479788538391
C           -1.92753654219012       -9.98046827822504        1.10304426606694
C            2.47602574095815       -4.90277375625419        0.90104438336808
H            0.80722160409751       -2.37047885313621       -2.14334729471034
H            2.01485581149507       -1.10305720793437       -1.90613354961410
H            0.79994629131159       -0.92100173249669       -3.16199404668451
H           -2.38865458926415        1.53524096672894        0.94733959852768
H           -2.59846809746149        0.91197531400866       -0.69065558756390
H            0.09727117873569        1.67244013862367        0.50226404857910
H           -0.84817148119818        2.68535790326903       -0.59094732176449
H            0.91192361235643        1.27768907520434       -1.76794952862220
H           -0.72456224966288        1.01952462263656       -2.36097439940920
H           -3.29364102477188       -1.45095731265431       -0.34540820090264
H           -3.74635912744634       -0.57598571882037        1.11948020512939
H           -2.93192716751032       -2.12640891526371        1.24951745897091
H           -0.16360545405636        0.14391306801531        2.13676969186157
H           -0.88477840607625       -1.43014262053067        2.45006849450544
H           -1.81216077840231        0.04189698946497        2.76404339556989
H           -1.31728857307137       -3.17187228586648        0.31611869833534
H            1.65552471337247       -2.55635064289068        0.14476462088646
H           -0.93438753647272       -5.23466100197951        0.34188224167678
H            1.28455225553065       -7.20669966037795        1.11959983032492
H           -1.72125385808442       -7.42827160735251        0.64386699381378
H            1.45227485186826       -9.24799200193262        1.39558532678921
H           -0.16264199132803      -11.84965482230694        1.64729224571355
H            2.79771456622459      -11.14032937125334        1.85627628348604
H            1.19314290298994      -13.75172704296090        2.11720490550845
H            4.53762006150412      -12.09994693197797        2.19559110561336
H            5.26629181003783      -13.59724690329964        1.62048439438506
H            5.08532316607402      -13.31065975621017        3.35235199418033
H            2.23405432754447      -15.69313711599654        2.55073064510248
H            5.27076832521273      -15.63475299414336        2.86461950782224
H            3.11873315421681      -17.82335665629950        3.01222494726064
H            6.75304439817625      -16.97079451922438        3.14261363471023
H            7.14579630351584      -18.62846935147181        2.69361413106255
H            6.94915990069645      -18.19681651230575        4.39260076182184
H            3.68670183751838      -19.95186212759731        3.42851883771240
H            6.62416449912348      -20.52970400654117        3.99700729243012
H            4.39578714176694      -24.87544338053010        2.91150820959835
H            2.78338011472329      -24.22806675824939        3.19090161770203
H            3.70376947877809      -25.57736311619116        5.13865450268567
H            3.24663306890026      -23.92872576932844        5.57298857499139
H            6.05325959597538      -24.81428623528750        4.79422366523700
H            5.52442542214366      -24.57922862132209        6.46175836816163
H            7.68559544076738      -22.97518336270766        4.41384915086566
H            7.65823274512006      -23.27802533553423        6.15268513921111
H            7.59081808483332      -21.62783343249229        5.55639338907524
H            4.08135733523793      -22.10154798619565        6.59359752789590
H            5.39002927908105      -20.93360380425912        6.46518292846701
H            5.59230276678671      -22.37579108864585        7.46754467584264
H            4.46293400078724      -21.38397036849505        1.59387581534491
H            2.82059929149982      -21.89390111289381        1.99459593586825
H            3.89961836031671      -23.00944021956461        1.17073386441152
H           -1.89919774234825      -10.73776137595029        0.31925121642646
H           -2.77525602469385       -9.32642984509598        0.91346788072084
H           -2.09321476387795      -10.48637254089913        2.05383933004963
H            3.10665924899002       -4.01807929224655        0.86224739322628
H            2.86468353648385       -5.63029609451285        0.18863641440472
H            2.55524321655481       -5.33303104243247        1.89875357538968
