96

C          1.79430       -1.11673       -1.85080
C          0.69917       -0.51936       -0.99698
C         -0.25989       -1.23293       -0.35246
C         -1.41598       -0.56670        0.42594
C         -1.49409        0.95508        0.12607
C         -0.12441        1.61459        0.12850
C          0.75992        0.99183       -0.94345
C         -2.79342       -1.16095        0.05053
C         -1.19890       -0.77507        1.94165
C         -0.24556       -2.69402       -0.34622
C          0.72244       -3.41307        0.24457
C          0.79873       -4.86695        0.24678
C         -0.20589       -5.61153        0.76056
C         -0.23117       -7.05378        0.86695
C         -1.20523       -7.73680        1.49619
C         -1.22408       -9.19422        1.62193
C         -0.10749       -9.85751        1.97481
C          0.06515      -11.28371        2.14984
C          1.28626      -11.81054        2.32329
C          1.53659      -13.22370        2.50821
C          2.74610      -13.82620        2.54044
C          4.06388      -13.11465        2.33148
C          2.79859      -15.27249        2.78432
C          3.91372      -16.01628        2.87728
C          3.89445      -17.44081        3.14733
C          4.96177      -18.25605        3.28415
C          6.40232      -17.81180        3.18473
C          4.72100      -19.67538        3.56946
C          5.65302      -20.63992        3.62498
C          5.36584      -22.03362        3.95267
C          4.67323      -22.83851        3.11154
C          4.34482      -24.27773        3.44746
C          4.60795      -24.66844        4.89595
C          5.92048      -24.07372        5.38111
C          5.92759      -22.52391        5.30619
C          7.39114      -22.07607        5.53804
C          5.06503      -21.94892        6.45282
C          4.17710      -22.43516        1.74234
C         -2.57250       -9.81185        1.36090
C          2.09816       -5.38672       -0.31190
H          1.63333       -2.17036       -2.09280
H          2.76160       -1.02485       -1.34531
H          1.85405       -0.58572       -2.80775
H         -2.14099        1.45821        0.85567
H         -1.95723        1.11989       -0.85669
H          0.34832        1.51196        1.11190
H         -0.22582        2.69028       -0.05662
H          1.79215        1.31981       -0.76934
H          0.46543        1.38254       -1.92547
H         -2.95007       -1.14981       -1.03396
H         -3.60814       -0.58727        0.50812
H         -2.90329       -2.19549        0.39383
H         -0.20836       -0.43654        2.26292
H         -1.28787       -1.83121        2.22066
H         -1.94388       -0.22561        2.52838
H         -1.07125       -3.18855       -0.85268
H          1.55233       -2.89970        0.72964
H         -1.07794       -5.09666        1.16184
H          0.58904       -7.60897        0.42223
H         -2.04778       -7.20959        1.93926
H          0.79680       -9.27477        2.15996
H         -0.80977      -11.92589        2.12387
H          2.14299      -11.14315        2.33214
H          0.64027      -13.82741        2.65301
H          3.96246      -12.06584        2.04451
H          4.63653      -13.59024        1.52623
H          4.65993      -13.14145        3.25066
H          1.83489      -15.76716        2.90586
H          4.88303      -15.54685        2.76030
H          2.89543      -17.86813        3.24405
H          6.52773      -16.73384        3.06536
H          6.89114      -18.28567        2.32599
H          6.94768      -18.08100        4.09662
H          3.68470      -19.95756        3.75936
H          6.70376      -20.42066        3.45521
H          4.94041      -24.92520        2.79102
H          3.29068      -24.47999        3.22237
H          4.64029      -25.76077        4.98005
H          3.77981      -24.33415        5.53087
H          6.73651      -24.48062        4.76785
H          6.11402      -24.40800        6.40822
H          8.03297      -22.36356        4.69678
H          7.80422      -22.53430        6.44459
H          7.47211      -20.99021        5.66767
H          4.00237      -22.18135        6.32217
H          5.15486      -20.85775        6.51418
H          5.37875      -22.35392        7.42231
H          4.55885      -21.47065        1.40033
H          3.08371      -22.38662        1.73791
H          4.49065      -23.17351        0.99654
H         -2.91600       -9.56207        0.35011
H         -3.30812       -9.43581        2.08138
H         -2.56948      -10.90222        1.43763
H          2.28992       -4.94683       -1.29826
H          2.11450       -6.47058       -0.44666
H          2.93293       -5.12194        0.34794
