24
 energy: -42.153937176661 gnorm: 0.000425256153 xtb: 6.7.1 (unknown)
C           -3.25044917573861       -1.13340220914555        0.01696686317530
N           -2.28581649132798       -0.07176390576008        0.01159597120635
C           -2.50136911444137        1.25492729830384        0.00500655897673
N           -1.39591725607687        1.96959492111771        0.00145808268473
C           -0.40073646505705        1.05582756923408        0.00599575388304
C           -0.91922474350747       -0.23101772174365        0.01240625669767
C           -0.09241416931629       -1.39926888302270        0.01828977769924
O           -0.46372137064875       -2.55748247440015        0.02393231373166
N            1.26125242360936       -1.04978951166671        0.01673759706535
C            2.23165501503209       -2.13266006193159        0.02220221825921
C            1.81358544555996        0.22527231949522        0.01051542224442
O            3.01451662595580        0.38460659898759        0.01006644531882
N            0.93783529852783        1.29103945421310        0.00502568584767
C            1.44022600642917        2.64732367443918       -0.00199152712487
H           -4.25317856770941       -0.71029956105370        0.01449923707247
H           -3.11375614039029       -1.75635791760840        0.90208853984947
H           -3.11332116430197       -1.76565998032304       -0.86146036393411
H           -3.48203573387139        1.68749113200791        0.00283770759572
H            1.67871777625679       -3.06906476435023        0.02332729030360
H            2.86125282881925       -2.06011128079867        0.90853299474011
H            2.86583498131572       -2.06463129223653       -0.86118113164589
H            2.52710372707397        2.59902222047455        0.00615281377885
H            1.07657899541993        3.17760432648696        0.87771661848947
H            1.08993126838756        3.16420004928084       -0.89509112591502
