24

C         -3.24647       -1.13007        0.01715
N         -2.26205       -0.07798        0.01135
C         -2.51650        1.26808        0.00444
N         -1.40273        1.97344        0.00117
C         -0.41052        1.04017        0.00609
C         -0.90509       -0.22872        0.01226
C         -0.08041       -1.38602        0.01827
O         -0.53633       -2.52565        0.02461
N          1.28337       -1.07865        0.01619
C          2.23111       -2.17577        0.02193
C          1.83395        0.22036        0.01044
O          3.05690        0.39074        0.00971
N          0.94000        1.29163        0.00570
C          1.42497        2.65967       -0.00153
H         -4.24795       -0.69216        0.01471
H         -3.10935       -1.73017        0.92010
H         -3.10932       -1.74023       -0.87901
H         -3.51904        1.67744        0.00217
H          1.74301       -3.15346        0.02290
H          2.86380       -2.09414        0.91191
H          2.86981       -2.09903       -0.86419
H          2.51710        2.70543        0.00632
H          1.04752        3.17770        0.88582
H          1.06077        3.16279       -0.90288
