74

C          7.24477        4.05081       -1.70151
C          6.65884        2.68933       -1.31696
C          7.05673        1.64500       -2.36119
C          7.11646        2.30793        0.10363
C          6.47610        1.01696        0.63101
C          6.90108        0.74848        2.08112
C          6.19731       -0.46337        2.75217
C          6.50964       -1.75569        1.99117
C          6.60795       -0.54747        4.25516
C          6.21973        0.74533        5.03626
C          5.94281        0.33709        6.48781
C          6.39598       -1.11235        6.55261
C          5.89516       -1.96445        7.72453
C          6.28159       -1.32710        9.06793
C          6.14356       -2.25618       10.23241
C          5.97938       -3.58701       10.13412
C          5.82210       -4.42591       11.38478
C          6.76443       -5.63049       11.39434
O          6.47961       -6.46473       12.51622
C          6.63255       -6.44746       10.11216
C          6.86719       -5.58145        8.87448
C          5.95005       -4.32565        8.78678
C          4.49152       -4.77110        8.52271
C          6.48833       -3.39621        7.62415
C          6.33254       -3.99926        6.20446
C          6.74811       -3.04711        5.06726
C          6.03474       -1.68494        5.15965
C          4.51333       -1.85397        4.93497
H          6.90456        4.35465       -2.69712
H          8.33985        4.02539       -1.71056
H          6.92906        4.82485       -0.99411
H          5.56524        2.78073       -1.32198
H          8.13545        1.45614       -2.34400
H          6.78810        1.98030       -3.36883
H          6.54087        0.69531       -2.19065
H          6.86388        3.13017        0.78568
H          8.20937        2.20503        0.12638
H          6.77945        0.18118       -0.00468
H          5.38438        1.09900        0.57675
H          6.68628        1.65550        2.65692
H          7.98852        0.60463        2.11774
H          5.11489       -0.29201        2.68980
H          7.56554       -2.02992        2.08750
H          6.27727       -1.67037        0.92641
H          5.89852       -2.58569        2.34952
H          7.70597       -0.62232        4.28433
H          5.32747        1.22491        4.61687
H          7.03807        1.47358        4.99469
H          4.87624        0.43803        6.71863
H          6.49344        0.96985        7.19125
H          7.49634       -1.08355        6.63367
H          4.80098       -2.01921        7.68776
H          5.64685       -0.45032        9.24314
H          7.31927       -0.97132        9.04237
H          6.17984       -1.78532       11.21324
H          4.78195       -4.76549       11.46899
H          5.99874       -3.83454       12.29258
H          7.79948       -5.28529       11.50408
H          5.57436       -6.80474       12.41475
H          5.64598       -6.92497       10.06618
H          7.35378       -7.27373       10.12987
H          6.73629       -6.21103        7.98628
H          7.91993       -5.26724        8.87830
H          4.06615       -5.32452        9.36650
H          4.42180       -5.43727        7.65694
H          3.83083       -3.91677        8.34358
H          7.57492       -3.28586        7.77728
H          5.29758       -4.30769        6.02864
H          6.94100       -4.90729        6.12204
H          6.53913       -3.54521        4.11749
H          7.83599       -2.90447        5.10489
H          4.30820       -2.32401        3.96798
H          3.98263       -0.89679        4.94551
H          4.04190       -2.48446        5.69333
