74
 energy: -85.430929808137 gnorm: 0.000517546450 xtb: 6.7.1 (unknown)
C            7.14879148007534        4.05916698681457       -1.57469673116009
C            6.62292470809429        2.66709873547380       -1.22760821480377
C            7.02033705928805        1.68006734036610       -2.32293150033310
C            7.15237627103668        2.23557546180417        0.14494418990742
C            6.44960496198536        1.00595410579226        0.71754397951530
C            7.01688463517637        0.63334101353703        2.08720357106449
C            6.27881897283745       -0.53205319925849        2.76852297334367
C            6.61128772805745       -1.83567719179078        2.04380862572639
C            6.66156191138177       -0.58262442619075        4.25865354176867
C            6.27286303008056        0.72130557828499        5.00307066987775
C            5.89455870186264        0.33010182884719        6.44239648122723
C            6.35247054604225       -1.12071463509129        6.54293907206059
C            5.82894501969484       -1.95505371503749        7.70737516308400
C            6.23979507487565       -1.31441980792220        9.03251065558902
C            6.10546273286167       -2.25696863653668       10.18132192185778
C            5.95817892721423       -3.56992252820236       10.07894028600385
C            5.80787868846253       -4.41346368216740       11.31556347025068
C            6.80495955887109       -5.57684374552912       11.33057922749476
O            6.68184431293701       -6.36012238153992       12.49723322060686
C            6.62183191480275       -6.39869523444424       10.05627356983975
C            6.84819864592173       -5.52388951910589        8.82908293673455
C            5.91364755822566       -4.29745744990744        8.74869232921892
C            4.47089485272133       -4.75827015816821        8.48819233996446
C            6.42996768404222       -3.36659938871472        7.61682527654165
C            6.22490477691420       -3.96528731168508        6.21949053913128
C            6.72789998008040       -3.06149936667445        5.09086225859879
C            6.04451862794837       -1.69427544900757        5.14689398493685
C            4.54403220577708       -1.81916990603845        4.87291676570481
H            6.77541561265854        4.37914097741854       -2.54503609938035
H            8.23633598849172        4.05318306016506       -1.61116188581519
H            6.83480550496731        4.78769463332559       -0.83039058952916
H            5.52876559032405        2.71228374436598       -1.17833512773243
H            8.10376883891265        1.59422247948111       -2.37815600543657
H            6.65477258931629        2.02064736025475       -3.28938992651568
H            6.60529478257787        0.69351269193290       -2.13514905669050
H            7.02436014338980        3.06513984814613        0.84548022468969
H            8.22392362028065        2.03538512205221        0.06672384763656
H            6.56281862408925        0.17109293826009        0.02616949274596
H            5.38111231586957        1.21576518802536        0.81460956449677
H            6.96260514161650        1.51867346683858        2.72073831719017
H            8.07190545959359        0.36950562026621        1.98124910675336
H            5.20330303102005       -0.34786325243145        2.68337242814356
H            7.63753113221976       -2.13243545403926        2.24875143530885
H            6.49963162395950       -1.71244288969847        0.96995723408988
H            5.94895080386674       -2.63972750147316        2.34817149470554
H            7.75045852918338       -0.69905326992914        4.30554716042801
H            5.43561162678544        1.20859536784029        4.50282307616690
H            7.10709353145232        1.42203387129144        5.00756889876834
H            4.81878132853712        0.40186064190527        6.60430748636960
H            6.38514672377694        0.96906630269907        7.17545531500509
H            7.44635935080779       -1.10874917540690        6.63502208473992
H            4.73842013200015       -2.00928925730277        7.67340148861460
H            5.63553340619697       -0.42400177770341        9.22247932621435
H            7.28325557425447       -0.98407127465739        8.97194582730801
H            6.14464309153218       -1.79901717014452       11.16175527008821
H            4.79498873679679       -4.82826399525697       11.36712962653392
H            5.95446359076686       -3.79829253735812       12.20504915235449
H            7.82583900370573       -5.18161918965582       11.37000753411481
H            5.79284527544289       -6.73300941691198       12.52284736793712
H            5.61641280026788       -6.82744350095563       10.04195894208588
H            7.33479449642892       -7.22609822630310       10.05248758742560
H            6.72145595144972       -6.13508005697872        7.93440138747815
H            7.88221702615925       -5.17075296055988        8.84922073089630
H            4.06336077096266       -5.26279518434052        9.35906286296541
H            4.42815397468007       -5.45261214721261        7.65314113352084
H            3.83015235792925       -3.90691540140791        8.27393029167676
H            7.51010145521877       -3.25123728467055        7.77233282382618
H            5.16805743023649       -4.16427093006008        6.05302496981451
H            6.75531190897808       -4.91662490070887        6.15249357052876
H            6.54142577393101       -3.56605755323564        4.14358044834157
H            7.80817615395013       -2.92641684620029        5.18723422666783
H            4.37454264502758       -2.36522272181430        3.94818351836776
H            4.08439942580001       -0.84075173377634        4.77689218026220
H            4.03518655731930       -2.35041102198206        5.67067065308719
