44

C         -2.64069        0.74506       -1.67330
C         -2.66435        0.54391       -0.13689
C         -1.97341        1.73455        0.53917
C         -0.45473        1.73979        0.27835
C          0.23911        0.39268        0.61625
C         -0.50505       -0.80824       -0.04280
C          0.16823       -2.11032        0.39540
C          1.59063       -2.16884       -0.15337
C          2.36561       -0.88204        0.00374
C          3.75288       -0.92039       -0.23012
C          4.51290        0.23725       -0.12069
O          5.85886        0.23002       -0.33597
C          3.91718        1.44004        0.21841
C          2.54019        1.49141        0.44439
C          1.73674        0.34342        0.32019
C         -1.98001       -0.74834        0.35413
C         -2.92612       -1.85162       -0.11272
C         -4.32650       -1.22470        0.02121
C         -4.09923        0.26367        0.35414
O         -5.08253        1.10060       -0.22251
H         -1.62682        0.80128       -2.07797
H         -3.14043        1.68173       -1.94672
H         -3.15210       -0.06120       -2.20843
H         -2.13677        1.69504        1.62416
H         -2.40927        2.68102        0.19742
H         -0.02912        2.54691        0.88587
H         -0.25543        2.00780       -0.76622
H          0.16194        0.27251        1.70814
H         -0.41596       -0.74272       -1.13481
H         -0.38528       -2.98473        0.03549
H          0.18763       -2.17373        1.49110
H          1.55024       -2.40701       -1.22410
H          2.12469       -2.98681        0.34528
H          4.22347       -1.86300       -0.49486
H          6.13007       -0.67503       -0.55919
H          4.52023        2.33845        0.31256
H          2.11411        2.44977        0.72667
H         -2.01379       -0.76626        1.45654
H         -2.83598       -2.75543        0.49837
H         -2.73162       -2.13386       -1.15339
H         -4.89389       -1.70607        0.82572
H         -4.90345       -1.36333       -0.89982
H         -4.16001        0.39714        1.44155
H         -5.18893        0.85711       -1.15719
