44
 energy: -58.975774922850 gnorm: 0.000940500086 xtb: 6.7.1 (unknown)
C           -2.62375591021627        0.70778799057746       -1.65979926866227
C           -2.63920474062855        0.53664979678601       -0.13732887691544
C           -1.94267911716809        1.71945284294532        0.53007600960099
C           -0.43594738881503        1.70377248648394        0.25008048349243
C            0.22076869400157        0.37090873463212        0.64069538389509
C           -0.49615242896731       -0.81654097902792       -0.02451262127554
C            0.18161647959971       -2.10668706320556        0.42456700910680
C            1.58074780285001       -2.16151005112420       -0.17320219227982
C            2.33295397899952       -0.86795361392030       -0.00888728586849
C            3.70196367694836       -0.88771977940521       -0.24754610166199
C            4.47348066273888        0.25616737156803       -0.12884615402230
O            5.81670006003542        0.25588115269832       -0.35884118766887
C            3.85864640072652        1.44421250668544        0.24589276931029
C            2.49977767223918        1.46377092924909        0.48071492450058
C            1.70724729252012        0.32649514585939        0.34855178136003
C           -1.96827168914185       -0.75387880030884        0.35680566640418
C           -2.91335245437532       -1.85872361534440       -0.11868146221606
C           -4.31142103300733       -1.22847273500561        0.02459142306748
C           -4.09271186186865        0.27621417981230        0.32843810646150
O           -5.07417655206663        1.11294169615642       -0.21799996922842
H           -1.61124283473735        0.72175577690112       -2.04915155614921
H           -3.08766869703429        1.65809875148371       -1.92126921674353
H           -3.16300361251575       -0.09407796242987       -2.15778755165107
H           -2.10411345480744        1.66494119226344        1.60964120447736
H           -2.37006866230733        2.66116303538002        0.18030460123264
H            0.01077947277427        2.51585980456918        0.82416322541309
H           -0.24401857516333        1.90521717337273       -0.80487585004309
H            0.09955696940366        0.25589446015322        1.72807192947084
H           -0.38978032380028       -0.74216447066533       -1.11057537457257
H           -0.39108446305487       -2.97577750052490        0.09756580172640
H            0.23790748963157       -2.13040863405827        1.51492866410427
H            1.50545415849356       -2.38003652216773       -1.24424906193400
H            2.15448340407769       -2.97405926635046        0.27963868208582
H            4.17277077425832       -1.82231745667651       -0.52926163444534
H            6.10247137043247       -0.63238483392803       -0.60329881818011
H            4.45727239538222        2.33464406340052        0.35048939254575
H            2.05401478596516        2.39858806343554        0.78019542259855
H           -2.01930158655419       -0.73744229320404        1.45302728775725
H           -2.81902671890739       -2.76100176894767        0.48359337213565
H           -2.70125352589492       -2.12466833663750       -1.15470741899513
H           -4.88278587261442       -1.69851530826088        0.82314483266143
H           -4.89328769784869       -1.33317645181881       -0.89292559950180
H           -4.15916360718342        0.45305899161587        1.40676246887223
H           -5.07190073239967        1.00153129698287       -1.17501324026563
