9
 energy: -11.394338665289 gnorm: 0.000495725400 xtb: 6.7.1 (unknown)
C            0.98704952613461        0.04555359635138        0.08297570136948
C            2.51225312796093        0.06856083613633        0.08565345838636
O            3.04191104222977        1.01746969319543        0.98103976067308
H            0.62770691945505       -0.73840996020518       -0.57779263133920
H            0.59155713613170        1.00002363334497       -0.26229697982091
H            0.61487599200400       -0.14136706015528        1.08743522520408
H            2.88265005742873        0.25739763213143       -0.93333531582663
H            2.90466734543660       -0.89416378009328        0.42086771722323
H            2.67941885321861        1.88377540929420        0.76308306413051
