20
 energy: -19.993837561565 gnorm: 0.000557431733 xtb: 6.7.1 (unknown)
C            1.01279984768988       -0.07216235070157        0.00164542590785
C            2.53646191422992       -0.07406612195896       -0.02240096588956
C            3.08274978317463       -0.08888782197876       -1.44817134619327
C            4.60900321594504       -0.08949212496289       -1.47957964678644
C            5.15529066023911       -0.10574303247779       -2.90533456230759
C            6.67895339122594       -0.10600513655695       -2.92939840860380
H            0.64541233524562       -0.06174414223855        1.02508598080004
H            0.62290479302692       -0.95831321226244       -0.49444396435866
H            0.62485060049298        0.80497807264437       -0.51168508057644
H            2.90651090091006       -0.95065204520082        0.51433582784664
H            2.90842950297920        0.81224045314104        0.49675552964730
H            2.71100327618219        0.78711268755933       -1.98524036564190
H            2.71067401714812       -0.97565684557258       -1.96703159635922
H            4.98077513645107       -0.96494500581286       -0.94163504724135
H            4.98105410543003        0.79780547306524       -0.96160627399475
H            4.78427032600387        0.76965596814659       -3.44333315009913
H            4.78429301921754       -0.99321019894442       -3.42320359949691
H            7.06786928714466        0.78144642474420       -2.43486552925332
H            7.04634038507662       -0.11779812238705       -3.95282412724324
H            7.06788350218661       -0.98181291824513       -2.41453910015623
