20

C          1.02100       -0.07217       -0.00393
C          2.54119       -0.07429       -0.02538
C          3.08115       -0.08896       -1.45523
C          4.61060       -0.08924       -1.47252
C          5.15056       -0.10574       -2.90235
C          6.67076       -0.10595       -2.92382
H          0.65643       -0.06170        1.02797
H          0.62044       -0.96385       -0.49673
H          0.62271        0.81078       -0.51392
H          2.90726       -0.95194        0.51997
H          2.90942        0.81293        0.50284
H          2.70776        0.78795       -1.99809
H          2.70743       -0.97678       -1.97985
H          4.98420       -0.96543       -0.92862
H          4.98411        0.79927       -0.94896
H          4.78337        0.77047       -3.44935
H          4.78345       -0.99437       -3.42890
H          7.07018        0.78716       -2.43275
H          7.03532       -0.11795       -3.95571
H          7.07019       -0.98744       -2.41214
