33

C          2.84001        1.51185       -3.52803
C          2.46681        1.65986       -2.05074
C          0.94958        1.53936       -1.88808
C          3.17051        0.61070       -1.16725
C          4.67281        0.76190       -1.11400
C          5.25725        1.84907       -0.45336
C          6.64590        1.99234       -0.41016
C          7.47914        1.04911       -1.02774
C          6.89263       -0.04856       -1.67434
C          5.50400       -0.18794       -1.71863
C          8.98906        1.22995       -0.99389
C          9.63062        0.16354       -0.10322
C          9.64028        1.24827       -2.37713
O         10.74601        0.78478       -2.62284
O          8.92850        1.90018       -3.32843
H          2.29529        2.23975       -4.13906
H          2.59863        0.51081       -3.90123
H          3.90840        1.68698       -3.68852
H          2.75824        2.66690       -1.72648
H          0.59191        0.55533       -2.21013
H          0.43280        2.29924       -2.48380
H          0.65774        1.68122       -0.84216
H          2.90942       -0.39881       -1.51148
H          2.79359        0.67894       -0.13788
H          4.63093        2.59135        0.03766
H          7.06733        2.84642        0.11724
H          7.51041       -0.80607       -2.15523
H          5.07532       -1.04667       -2.23163
H          9.22018        2.21078       -0.55680
H          9.51667       -0.84110       -0.52620
H          9.18265        0.16130        0.89663
H         10.70439        0.34816        0.01192
H          8.05350        2.21395       -3.02483
