33
 energy: -45.163334254030 gnorm: 0.000580988962 xtb: 6.7.1 (unknown)
C            2.95867127032319        1.42206158396478       -3.49437661225773
C            2.51520555094456        1.64198233131409       -2.05098195161629
C            0.99538681614803        1.55297990180333       -1.94181888724511
C            3.17145466954442        0.61283117747152       -1.11377524211610
C            4.66322058441151        0.76205979512114       -1.07316498292092
C            5.24429696188138        1.81305488423653       -0.37392270236334
C            6.61668879885021        1.97894016344970       -0.35190295897516
C            7.44696816755050        1.09046570856811       -1.02422478246596
C            6.86865117126002        0.03639083017175       -1.72404532248891
C            5.49589366756409       -0.12191900534422       -1.74869574016894
C            8.94774289280512        1.24414865257136       -0.99264492347715
C            9.60553712284119        0.16500107180877       -0.13170017222617
C            9.52858850604909        1.22878275818696       -2.40699478834009
O           10.53567044721564        0.66533937947634       -2.71868827360819
O            8.82869637974348        1.94681289463470       -3.30514649255354
H            2.50889927297127        2.16696130434954       -4.14702878280122
H            2.65264954083839        0.43640522839833       -3.83898655957188
H            4.04038593625793        1.49715135392015       -3.58204744270710
H            2.83176097626158        2.64345701597807       -1.73824243253015
H            0.65171469176505        0.56313979662969       -2.23504971938886
H            0.52362892235925        2.28549438229753       -2.59276994100843
H            0.66861691621905        1.74113767909391       -0.92137553503743
H            2.90746913784129       -0.39148221814285       -1.45040809720193
H            2.76842352941238        0.75131563752134       -0.10751882811909
H            4.61481176457319        2.50793611983639        0.16312030714575
H            7.04802988528365        2.80197732797043        0.20115016640895
H            7.50115779284067       -0.66056880303693       -2.25528987964071
H            5.06543083616521       -0.94597966212774       -2.29863488222501
H            9.20088410696538        2.22848954891243       -0.57541900573808
H            9.32579864227177       -0.82350220031092       -0.48666650784424
H            9.29093938050184        0.26721522428698        0.90401580913228
H           10.68701238606402        0.25543470495405       -0.19086202652611
H            8.01022327427513        2.29937543203453       -2.92572280952251
