6
 energy: -8.226118333231 gnorm: 0.000247908112 xtb: 6.7.1 (unknown)
C            1.02387182080702       -0.04172074913136        0.07485032416905
O            2.42974987179291       -0.03370428246239        0.10258593454573
H            0.62878289146730       -1.03688837581071       -0.15677456381594
H            0.62878060834199        0.67651328210010       -0.65188680131980
H            0.69284165472995        0.24610507427120        1.07091148682008
H            2.76346315286083       -0.28443494896683       -0.76510638039912
