18
 energy: -25.474386100283 gnorm: 0.000091902113 xtb: 6.7.1 (unknown)
C            2.41361805410203       -0.70193873598019       -0.00562619709642
C            2.41477258245154        0.70199800700786       -0.00468976167423
C            1.23581959354252        1.39290135021252       -0.00297429222576
C            0.00050759886686        0.71185446285079       -0.00210972608879
C           -1.23368253526310        1.39493045363613       -0.00033787883335
C           -2.41377026083266        0.70596536067407        0.00047412725372
C           -2.41492477857388       -0.69797135876354       -0.00044923212439
C           -1.23597178291422       -1.38887469463945       -0.00217390643139
C           -0.00065983813133       -0.70782776969440       -0.00304996475316
C            1.23353025659935       -1.39090371477792       -0.00482553253910
H            3.35509776617654       -1.23192725699598       -0.00698364091709
H            3.35712276841385        1.23043868691740       -0.00534089182215
H            1.23154946254289        2.47395658833740       -0.00225186390310
H           -1.22763435061539        2.47597718176288        0.00036795086042
H           -3.35525003250728        1.23595386068842        0.00183114718674
H           -3.35727496263630       -1.22641197842759        0.00021319243970
H           -1.23170157708676       -2.46992993410599       -0.00289456248188
H            1.22748203586536       -2.47195050870241       -0.00553896684977
