13
 energy: -19.954146087035 gnorm: 0.000442056685 xtb: 6.7.1 (unknown)
O            2.26247473508013        0.00866784560264        0.01157987763046
C            0.90143548553892       -0.01282231950520        0.00615267769235
C            0.18236562646159       -1.20192092566040        0.00120402824207
C           -1.20089563272882       -1.17404392477716       -0.00423000346981
C           -1.87515849823128        0.03415518737247       -0.00476849880872
C           -1.15714672838934        1.21944466942286        0.00017423369344
C            0.22368101883865        1.20261444163817        0.00561890918308
H            2.60353940006698       -0.89377939668950        0.01134086908393
H            0.70968590052404       -2.14762198571273        0.00162697656498
H           -1.75121760551384       -2.10350156101183       -0.00805301774547
H           -2.95433873579065        0.05262306236058       -0.00901874869614
H           -1.67707249198537        2.16602699357999       -0.00021147744334
H            0.79824752612898        2.11529791338013        0.00951417407317
