13

O          2.26683        0.01239        0.01170
C          0.90330       -0.01043        0.00609
C          0.19846       -1.21088        0.00110
C         -1.19728       -1.18580       -0.00428
C         -1.87570        0.03422       -0.00467
C         -1.15945        1.23172        0.00015
C          0.23506        1.20887        0.00557
H          2.58974       -0.90329        0.01167
H          0.71264       -2.16639        0.00134
H         -1.75782       -2.11702       -0.00815
H         -2.96255        0.05213       -0.00874
H         -1.68606        2.18223       -0.00027
H          0.79843        2.13739        0.00942
