63
 energy: -99.514956157856 gnorm: 0.000626419050 xtb: 6.7.1 (unknown)
C            0.99503790958388       -1.07065648991237        1.22165622874503
C            2.50429489845763       -1.11428747467710        1.41554247648325
C            3.24422570883275       -0.71920290506710        0.13296288632207
C            4.71358206322561       -0.79647524970677        0.32572199716025
N            5.51294872463987        0.23377516980141        0.20352057195384
N            6.77328936661740       -0.13347115079701        0.46359374096417
C            7.84425552792665        0.80816201615259        0.31475479691659
C            6.82715575862161       -1.46840058263473        0.75955084068188
C            5.47624825785136       -1.95770392181728        0.67487503175961
N            5.10664592869670       -3.19713008251968        0.88288159246291
C            6.04567443891381       -4.11428363283762        1.16130510295793
O            5.87246436307309       -5.29092847789604        1.35540627645412
N            7.41119899094905       -3.63285843741253        1.25575089279734
C            7.81868563477345       -2.35839250266868        1.11062293400988
C            9.24880637740366       -2.03573896995202        1.26617271113706
C           10.14038490158119       -2.66562594961121        0.39629537108288
C           11.48173584223084       -2.36228167417276        0.41782554247077
C           11.97907521208494       -1.42147832581462        1.30396154380733
C           11.11962849375603       -0.81527702943600        2.19295615532112
C            9.75171471125100       -1.11936159502727        2.20542569456664
O            9.04104573689272       -0.47001298562053        3.15327884801160
C            7.84914788918586       -1.01190380591633        3.71142477055587
C            7.79198636070574       -0.58847806354354        5.17167078486393
S           12.56740209398770       -3.12064345056162       -0.79187413097942
O           13.89485534012836       -3.15588868998367       -0.25948471405434
O           11.95640443578331       -4.33121064743038       -1.24866673938379
N           12.57101788656373       -2.05379834012321       -2.06476465797891
C           11.33092677251606       -1.91505028339190       -2.78664242346592
C           11.61290279359293       -1.24314899470438       -4.12769193053370
N           12.23937164414704        0.04810032994722       -3.90201435270910
C           12.42414456592102        0.77579251119593       -5.13984167463047
C           13.49466836427854       -0.12951205107517       -3.19249252776033
C           13.22709610711347       -0.78904017677433       -1.84250303387591
H            0.48595547650694       -1.34747693290417        2.14166920710646
H            0.69264780163817       -1.76433959659118        0.44086593680504
H            0.67260681013983       -0.07088643629858        0.93755988609222
H            2.81315989521138       -2.12193513099543        1.69703432521114
H            2.79028277525022       -0.43155420947627        2.21936479456540
H            2.98109957363418        0.29635916057001       -0.16613240970567
H            2.95666636240216       -1.41003784733974       -0.66300744433455
H            7.41710358469533        1.71274764961035       -0.11300294177316
H            8.61252869408111        0.41453113582084       -0.35415910213227
H            8.30034378713759        1.04774483108307        1.27780909803827
H            8.09041525466881       -4.35135882160476        1.47869782329149
H            9.78427032758820       -3.39438766591724       -0.31609463933723
H           13.03597576392393       -1.21045985315311        1.30761276017589
H           11.47627077586199       -0.09997979631679        2.91689761025490
H            7.85415633393345       -2.10389810143303        3.63413945285240
H            6.97446653948000       -0.62191837933608        3.17781401931589
H            8.65189373522911       -0.97732061646679        5.71015323775160
H            6.88331693822335       -0.97146227055018        5.62605699238465
H            7.79732166296232        0.49538995435509        5.24330175431206
H           10.61397806687236       -1.30036173492729       -2.21841101352282
H           10.92324872800549       -2.91557850634582       -2.92926307739873
H           10.67255983861604       -1.08645573513617       -4.66058449468786
H           12.25676686414194       -1.90596255106637       -4.73074342570524
H           11.45498191532512        0.92082558671443       -5.61406700249828
H           13.08708819106245        0.25367453653025       -5.84599920966500
H           12.85219732108195        1.75161530380908       -4.91658311614106
H           13.94763696853942        0.85156295532792       -3.03419787060728
H           14.19834260067940       -0.75770645673898       -3.76509161482194
H           12.59594820282445       -0.12168887297326       -1.23423112834007
H           14.15868610899001       -0.99475968427476       -1.31593901362236
