63

C          0.86096       -0.84927        1.32267
C          2.37531       -0.75164        1.40043
C          3.01149       -1.06488        0.05087
C          4.49474       -0.94753        0.13523
N          5.20450        0.11816       -0.12316
N          6.53547       -0.22596        0.10869
C          7.50057        0.85397        0.16190
C          6.69144       -1.50083        0.58924
C          5.34483       -2.07811        0.61646
N          4.94043       -3.24110        0.97636
C          5.93420       -4.08711        1.40493
O          5.71416       -5.23292        1.78373
N          7.23385       -3.62028        1.41846
C          7.61710       -2.35231        1.03832
C          9.04016       -2.01397        1.15623
C          9.95024       -2.56999        0.24473
C         11.31190       -2.24379        0.31822
C         11.78548       -1.37994        1.30895
C         10.88676       -0.82566        2.22024
C          9.52997       -1.16147        2.16098
O          8.71884       -0.57115        3.09620
C          8.24943       -1.50980        4.07538
C          8.19263       -0.80289        5.41798
S         12.46272       -3.04968       -0.78099
O         13.73752       -3.10697       -0.09661
O         11.81519       -4.25428       -1.25583
N         12.60738       -1.98613       -2.08352
C         11.40448       -1.77221       -2.93462
C         11.81528       -1.11084       -4.26677
N         12.52501        0.16666       -4.04173
C         12.89178        0.78898       -5.31062
C         13.72434       -0.08001       -3.21366
C         13.35946       -0.72234       -1.85876
H          0.41412       -0.61778        2.29406
H          0.55149       -1.85983        1.03660
H          0.46029       -0.14544        0.58577
H          2.74451       -1.44454        2.16650
H          2.66348        0.25635        1.72357
H          2.64771       -0.36544       -0.71071
H          2.74950       -2.07633       -0.27799
H          7.18419        1.68942       -0.47170
H          8.47768        0.52441       -0.20292
H          7.60804        1.22850        1.18480
H          7.91833       -4.28562        1.75613
H          9.60180       -3.26273       -0.52005
H         12.84615       -1.15121        1.39148
H         11.24357       -0.14932        2.99448
H          8.90828       -2.38413        4.16234
H          7.24369       -1.84472        3.79775
H          9.19207       -0.45445        5.69896
H          7.82242       -1.47738        6.19558
H          7.54299        0.07882        5.37880
H         10.68188       -1.13506       -2.40941
H         10.92339       -2.72930       -3.15792
H         10.90763       -0.93037       -4.85386
H         12.44116       -1.80823       -4.84140
H         11.99553        0.99968       -5.90342
H         13.56441        0.16375       -5.90822
H         13.38201        1.75187       -5.13189
H         14.23927        0.86750       -3.01708
H         14.43277       -0.73043       -3.74571
H         12.75513       -0.02736       -1.26392
H         14.28883       -0.92683       -1.31790
