45
 energy: -81.661896992898 gnorm: 0.000634334784 xtb: 6.7.1 (unknown)
O            3.96032107189126       -4.88669750057868        1.81600392969634
C            3.27587211556837       -3.78924618896402        2.35509195206927
C            2.20315585026997       -3.19979052089691        1.42080479468295
O            2.76542438777361       -2.49101640486950        0.30907285554227
C            2.25668108408856       -2.97589261047651       -0.90575648580176
C            2.03606433396608       -1.79722350690986       -1.85737192054520
O            1.37326904404688       -2.28578450062697       -3.00401786602384
O            3.09286065367936       -3.98364925285548       -1.43316529121548
C            4.09415141574801       -3.70102046703763       -2.38016658298225
O            5.00226233591092       -2.71539150877226       -2.00711300989204
C            5.66925471193541       -2.95721083480425       -0.76861885339031
C            6.72902439117268       -1.85654611840189       -0.63845956339523
O            7.62307906568032       -1.86707533096575       -1.71679224697925
C            6.32568597413402       -4.34158606445503       -0.70021970977118
O            6.60575029880156       -4.57803671832866        0.66401363011836
C            5.42724521049786       -5.45736411738453       -1.24783723730430
O            6.22132513801977       -6.61605291316302       -1.37957681139614
C            4.79447804710212       -5.05578745600137       -2.58663808423022
O            3.89922177098929       -6.03535884203887       -3.03407782850459
C            0.93608634612787       -3.69674482128920       -0.54616941898696
O            0.57336901501208       -4.69306809449513       -1.45114957265839
C            1.26898100525210       -4.26619256475225        0.83924094977061
O            0.15585464398949       -4.42406084959445        1.67106289000269
H            4.81692247824839       -4.61190370324777        1.44804066846368
H            3.96064079859260       -2.98761919457553        2.64820629905971
H            2.74424735028732       -4.14708786905893        3.24336024641011
H            1.60474101517673       -2.48521645142736        2.00132619660129
H            1.42448625386853       -1.05821660142088       -1.32578428936050
H            3.00280092633135       -1.34484265943125       -2.10321302582831
H            1.21669073255747       -1.55203732061849       -3.60824123675113
H            3.65184170602352       -3.34949396730458       -3.32432226792759
H            4.94787435587199       -2.86363909184784        0.05111656123625
H            6.22027002791899       -0.88607807033588       -0.56269168927952
H            7.31616016582642       -2.03071673601513        0.26428402979595
H            7.09615855798491       -1.84348512200264       -2.52510214300699
H            7.25762741005531       -4.33142660117473       -1.28529810141386
H            6.97738079638026       -5.46716796912636        0.72766382556611
H            4.61169150092778       -5.64297260666597       -0.53028597580756
H            5.74000551623680       -7.23437352775503       -1.94352661439277
H            5.56922156626322       -4.95788465566035       -3.35437156048923
H            3.10758189119110       -5.98061719471381       -2.47935757891800
H            0.13716938172406       -2.94540223041982       -0.43742051993777
H            0.61832022026775       -4.31296886837643       -2.33877230874627
H            1.81719376380388       -5.20887785135269        0.70973253941217
H           -0.41117432719860       -5.10011451981612        1.28251642650706
