45

O          4.04991       -3.64301        2.37062
C          3.06393       -2.62051        2.46321
C          2.09434       -2.65159        1.28144
O          2.72962       -2.23926        0.04537
C          2.17210       -3.02932       -1.02622
C          1.64458       -2.10927       -2.15092
O          1.02299       -2.87684       -3.18505
O          3.10405       -4.03156       -1.47112
C          4.19072       -3.58791       -2.28003
O          5.13859       -2.79699       -1.56984
C          5.79613       -3.52835       -0.51197
C          6.70184       -2.54337        0.23224
O          7.58135       -1.88317       -0.68228
C          6.58035       -4.72225       -1.07201
O          7.18403       -5.49026       -0.02588
C          5.62338       -5.62735       -1.84858
O          6.37806       -6.68247       -2.47181
C          4.86660       -4.82738       -2.90617
O          3.90526       -5.69261       -3.53412
C          0.96982       -3.78327       -0.40408
O          0.60034       -4.99726       -1.05683
C          1.46304       -4.01154        1.01018
O          0.38612       -4.29896        1.89633
H          4.61065       -3.57432        3.16285
H          3.58785       -1.65936        2.49189
H          2.51987       -2.76372        3.40236
H          1.31169       -1.90852        1.48822
H          0.90669       -1.40394       -1.75106
H          2.44460       -1.50327       -2.58758
H          0.72320       -2.24558       -3.86440
H          3.80912       -2.99750       -3.11680
H          5.04842       -3.89441        0.19585
H          6.09820       -1.76427        0.71017
H          7.30084       -3.03727        1.00305
H          7.00123       -1.54147       -1.38855
H          7.38440       -4.38468       -1.73721
H          7.50931       -6.30222       -0.46420
H          4.92763       -6.12928       -1.16544
H          5.76770       -7.09141       -3.11800
H          5.57179       -4.51148       -3.68412
H          3.15208       -5.74763       -2.91051
H          0.07086       -3.15303       -0.37060
H          0.58022       -4.78101       -2.01142
H          2.17993       -4.83985        1.05034
H         -0.03616       -5.10422        1.53870
