      -----------------------------------------------------------      
     |                   =====================                   |     
     |                           x T B                           |     
     |                   =====================                   |     
     |                         S. Grimme                         |     
     |          Mulliken Center for Theoretical Chemistry        |     
     |                    University of Bonn                     |     
      -----------------------------------------------------------      

   * xtb version 6.7.1 (unknown) compiled by 'root@buildkitsandbox' on 2026-08-28

   xtb is free software: you can redistribute it and/or modify it under
   the terms of the GNU Lesser General Public License as published by
   the Free Software Foundation, either version 3 of the License, or
   (at your option) any later version.
   
   xtb is distributed in the hope that it will be useful,
   but WITHOUT ANY WARRANTY; without even the implied warranty of
   MERCHANTABILITY or FITNESS FOR A PARTICULAR PURPOSE.  See the
   GNU Lesser General Public License for more details.
   
   Cite this work as:
   * C. Bannwarth, E. Caldeweyher, S. Ehlert, A. Hansen, P. Pracht,
     J. Seibert, S. Spicher, S. Grimme, WIREs Comput. Mol. Sci., 2020, 11,
     e01493. DOI: 10.1002/wcms.1493
   
   for GFN2-xTB:
   * C. Bannwarth, S. Ehlert and S. Grimme., J. Chem. Theory Comput., 2019,
     15, 1652-1671. DOI: 10.1021/acs.jctc.8b01176
   for GFN1-xTB:
   * S. Grimme, C. Bannwarth, P. Shushkov, J. Chem. Theory Comput., 2017,
     13, 1989-2009. DOI: 10.1021/acs.jctc.7b00118
   for GFN0-xTB:
   * P. Pracht, E. Caldeweyher, S. Ehlert, S. Grimme, ChemRxiv, 2019, preprint.
     DOI: 10.26434/chemrxiv.8326202.v1
   for GFN-FF:
   * S. Spicher and S. Grimme, Angew. Chem. Int. Ed., 2020, 59, 15665-15673.
     DOI: 10.1002/anie.202004239
   
   for ALPB and GBSA implicit solvation:
   * S. Ehlert, M. Stahn, S. Spicher, S. Grimme, J. Chem. Theory Comput.,
     2021, 17, 4250-4261. DOI: 10.1021/acs.jctc.1c00471
   
   for ddCOSMO and CPCM-X implicit solvation:
   * M. Stahn, S. Ehlert, S. Grimme, J. Phys. Chem. A,
     2023, XX, XXXX-XXXX. DOI: 10.1021/acs.jpca.3c04382
   
   for DFT-D4:
   * E. Caldeweyher, C. Bannwarth and S. Grimme, J. Chem. Phys., 2017,
     147, 034112. DOI: 10.1063/1.4993215
   * E. Caldeweyher, S. Ehlert, A. Hansen, H. Neugebauer, S. Spicher,
     C. Bannwarth and S. Grimme, J. Chem. Phys., 2019, 150, 154122.
     DOI: 10.1063/1.5090222
   * E. Caldeweyher, J.-M. Mewes, S. Ehlert and S. Grimme, Phys. Chem. Chem. Phys.
     2020, 22, 8499-8512. DOI: 10.1039/D0CP00502A
   
   for sTDA-xTB:
   * S. Grimme and C. Bannwarth, J. Chem. Phys., 2016, 145, 054103.
     DOI: 10.1063/1.4959605
   
   in the mass-spec context:
   * V. Asgeirsson, C. Bauer and S. Grimme, Chem. Sci., 2017, 8, 4879.
     DOI: 10.1039/c7sc00601b
   * J. Koopman and S. Grimme, ACS Omega 2019, 4, 12, 15120-15133.
     DOI: 10.1021/acsomega.9b02011
   
   for metadynamics refer to:
   * S. Grimme, J. Chem. Theory Comput., 2019, 155, 2847-2862
     DOI: 10.1021/acs.jctc.9b00143
   
   for SPH calculations refer to:
   * S. Spicher and S. Grimme, J. Chem. Theory Comput., 2021, 17, 1701-1714
     DOI: 10.1021/acs.jctc.0c01306
   
   for ONIOM refer to:
   * C. Plett, A. Katbashev, S. Ehlert, S. Grimme, M. Bursch,
     Phys. Chem. Chem. Phys., 2023, 25, 17860-17868. DOI: 10.1039/D3CP02178E
   
   for DIPRO refer to:
   * J. Kohn, N. Gildemeister, S. Grimme, D. Fazzi, A. Hansen,
     J. Chem. Phys. 159, 144106 (2023). DOI: 10.1063/5.0167484
   
   for PTB refer to:
   * S. Grimme, M. Mueller, A. Hansen, J. Chem. Phys., 2023, 158, 124111.
     DOI: 10.1063/5.0137838
   
   with help from (in alphabetical order)
   P. Atkinson, C. Bannwarth, F. Bohle, G. Brandenburg, E. Caldeweyher,
   M. Checinski, S. Dohm, S. Ehlert, S. Ehrlich, M. Friede, T. Froitzheim,
   I. Gerasimov, C. Hölzer, A. Katbashev, J. Kohn, J. Koopman, C. Lavigne,
   S. Lehtola, F. März, M. Müller, F. Musil, H. Neugebauer, J. Pisarek,
   C. Plett, P. Pracht, F. Pultar, J. Seibert, P. Shushkov, S. Spicher,
   M. Stahn, M. Steiner, T. Strunk, J. Stückrath, T. Rose, and J. Unsleber
   
 * started run on 2026/08/28 at 19:09:42.289     
   ID    Z sym.   atoms
    1    6 C      1-8
    2    1 H      9-26

           -------------------------------------------------
          |                Calculation Setup                |
           -------------------------------------------------

          program call               : xtb in.xyz --gfn 2 --grad --norestart
          hostname                   : 756d39058c4f
          coordinate file            : in.xyz
          random seed                :             570383397


           -------------------------------------------------
          |                 G F N 2 - x T B                 |
           -------------------------------------------------

        Reference                      10.1021/acs.jctc.8b01176
      * Hamiltonian:
        H0-scaling (s, p, d)           1.850000    2.230000    2.230000
        zeta-weighting                 0.500000
      * Dispersion:
        s8                             2.700000
        a1                             0.520000
        a2                             5.000000
        s9                             5.000000
      * Repulsion:
        kExp                           1.500000    1.000000
        rExp                           1.000000
      * Coulomb:
        alpha                          2.000000
        third order                    shell-resolved
        anisotropic                    true
        a3                             3.000000
        a5                             4.000000
        cn-shift                       1.200000
        cn-exp                         4.000000
        max-rad                        5.000000


          ...................................................
          :                      SETUP                      :
          :.................................................:
          :  # basis functions                  50          :
          :  # atomic orbitals                  50          :
          :  # shells                           34          :
          :  # electrons                        50          :
          :  max. iterations                   250          :
          :  Hamiltonian                  GFN2-xTB          :
          :  restarted?                      false          :
          :  GBSA solvation                  false          :
          :  PC potential                    false          :
          :  electronic temp.          300.0000000     K    :
          :  accuracy                    1.0000000          :
          :  -> integral cutoff          0.2500000E+02      :
          :  -> integral neglect         0.1000000E-07      :
          :  -> SCF convergence          0.1000000E-05 Eh   :
          :  -> wf. convergence          0.1000000E-03 e    :
          :  Broyden damping             0.4000000          :
          :  net charge                          0          :
          :  unpaired electrons                  0          :
          ...................................................

 iter      E             dE          RMSdq      gap      omega  full diag
   1    -26.6353418 -0.266353E+02  0.268E+00   12.59       0.0  T
   2    -26.7069945 -0.716528E-01  0.150E+00   12.63       1.0  T
   3    -26.7078929 -0.898412E-03  0.774E-01   12.65       1.0  T
   4    -26.7080897 -0.196787E-03  0.870E-02   12.67       1.0  T
   5    -26.7080964 -0.670245E-05  0.460E-02   12.66       1.0  T
   6    -26.7080978 -0.141084E-05  0.205E-03   12.66       9.6  T
   7    -26.7080978 -0.215967E-07  0.957E-04   12.66      20.5  T
   8    -26.7080978 -0.131235E-08  0.249E-04   12.66      78.6  T

   *** convergence criteria satisfied after 8 iterations ***

         #    Occupation            Energy/Eh            Energy/eV
      -------------------------------------------------------------
         1        2.0000           -0.6217720             -16.9193
       ...           ...                  ...                  ...
        19        2.0000           -0.4429463             -12.0532
        20        2.0000           -0.4332238             -11.7886
        21        2.0000           -0.4290180             -11.6742
        22        2.0000           -0.4267084             -11.6113
        23        2.0000           -0.4185985             -11.3906
        24        2.0000           -0.4170040             -11.3473
        25        2.0000           -0.4129599             -11.2372 (HOMO)
        26                          0.0524242               1.4265 (LUMO)
        27                          0.0994613               2.7065
        28                          0.1069822               2.9111
        29                          0.1139184               3.0999
        30                          0.1222816               3.3275
       ...                                ...                  ...
        50                          0.3157356               8.5916
      -------------------------------------------------------------
                  HL-Gap            0.4653841 Eh           12.6637 eV
             Fermi-level           -0.1802679 Eh           -4.9053 eV

 SCC (total)                   0 d,  0 h,  0 min,  0.020 sec
 SCC setup                      ...        0 min,  0.000 sec (  0.417%)
 Dispersion                     ...        0 min,  0.000 sec (  0.435%)
 classical contributions        ...        0 min,  0.000 sec (  0.096%)
 integral evaluation            ...        0 min,  0.003 sec ( 16.386%)
 iterations                     ...        0 min,  0.011 sec ( 56.665%)
 molecular gradient             ...        0 min,  0.004 sec ( 19.533%)
 printout                       ...        0 min,  0.001 sec (  6.399%)

         :::::::::::::::::::::::::::::::::::::::::::::::::::::
         ::                     SUMMARY                     ::
         :::::::::::::::::::::::::::::::::::::::::::::::::::::
         :: total energy             -26.322066162305 Eh    ::
         :: gradient norm              0.017720690877 Eh/a0 ::
         :: HOMO-LUMO gap             12.663747247048 eV    ::
         ::.................................................::
         :: SCC energy               -26.708190880933 Eh    ::
         :: -> isotropic ES            0.004665255585 Eh    ::
         :: -> anisotropic ES          0.009120916291 Eh    ::
         :: -> anisotropic XC          0.016954136549 Eh    ::
         :: -> dispersion             -0.014841361705 Eh    ::
         :: repulsion energy           0.386124718628 Eh    ::
         :: add. restraining           0.000000000000 Eh    ::
         :: total charge               0.000000000000 e     ::
         :::::::::::::::::::::::::::::::::::::::::::::::::::::

           -------------------------------------------------
          |                Property Printout                |
           -------------------------------------------------

    * Orbital Energies and Occupations

         #    Occupation            Energy/Eh            Energy/eV
      -------------------------------------------------------------
         1        2.0000           -0.6217720             -16.9193
       ...           ...                  ...                  ...
        13        2.0000           -0.4895326             -13.3209
        14        2.0000           -0.4820448             -13.1171
        15        2.0000           -0.4673802             -12.7181
        16        2.0000           -0.4658156             -12.6755
        17        2.0000           -0.4478191             -12.1858
        18        2.0000           -0.4467524             -12.1568
        19        2.0000           -0.4429463             -12.0532
        20        2.0000           -0.4332238             -11.7886
        21        2.0000           -0.4290180             -11.6742
        22        2.0000           -0.4267084             -11.6113
        23        2.0000           -0.4185985             -11.3906
        24        2.0000           -0.4170040             -11.3473
        25        2.0000           -0.4129599             -11.2372 (HOMO)
        26                          0.0524242               1.4265 (LUMO)
        27                          0.0994613               2.7065
        28                          0.1069822               2.9111
        29                          0.1139184               3.0999
        30                          0.1222816               3.3275
        31                          0.1278522               3.4790
        32                          0.1351670               3.6781
        33                          0.1413020               3.8450
        34                          0.1557437               4.2380
        35                          0.1651070               4.4928
        36                          0.1671031               4.5471
       ...                                ...                  ...
        50                          0.3157356               8.5916
      -------------------------------------------------------------
                  HL-Gap            0.4653841 Eh           12.6637 eV
             Fermi-level           -0.1802679 Eh           -4.9053 eV

     #   Z          covCN         q      C6AA      α(0)
     1   6          3.750    -0.100    22.471     6.761
     2   6          3.800    -0.052    21.504     6.602
     3   6          3.802    -0.058    21.620     6.620
     4   6          3.802    -0.058    21.612     6.619
     5   6          3.802    -0.058    21.612     6.619
     6   6          3.802    -0.058    21.620     6.620
     7   6          3.800    -0.052    21.504     6.602
     8   6          3.750    -0.100    22.471     6.761
     9   1          0.924     0.031     2.573     2.508
    10   1          0.924     0.032     2.557     2.501
    11   1          0.924     0.032     2.557     2.501
    12   1          0.924     0.028     2.611     2.527
    13   1          0.924     0.028     2.611     2.527
    14   1          0.924     0.030     2.592     2.518
    15   1          0.924     0.030     2.592     2.518
    16   1          0.924     0.028     2.610     2.527
    17   1          0.924     0.028     2.610     2.527
    18   1          0.924     0.028     2.610     2.527
    19   1          0.924     0.028     2.610     2.527
    20   1          0.924     0.030     2.592     2.518
    21   1          0.924     0.030     2.592     2.518
    22   1          0.924     0.028     2.611     2.527
    23   1          0.924     0.028     2.611     2.527
    24   1          0.924     0.032     2.557     2.501
    25   1          0.924     0.031     2.573     2.508
    26   1          0.924     0.032     2.557     2.501

 Mol. C6AA /au·bohr⁶  :       4385.004251
 Mol. C8AA /au·bohr⁸  :      90707.621656
 Mol. α(0) /au        :         98.508151


Wiberg/Mayer (AO) data.
largest (>0.10) Wiberg bond orders for each atom

 ---------------------------------------------------------------------------
     #   Z sym  total        # sym  WBO       # sym  WBO       # sym  WBO
 ---------------------------------------------------------------------------
     1   6      3.997 --     2      1.020    10      0.988    11      0.988
                             9      0.987
     2   6      3.997 --     1      1.020     3      1.008    12      0.978
                            13      0.978
     3   6      3.997 --     2      1.008     4      1.007    15      0.977
                            14      0.977
     4   6      3.997 --     3      1.007     5      1.007    16      0.977
                            17      0.977
     5   6      3.997 --     6      1.007     4      1.007    19      0.977
                            18      0.977
     6   6      3.997 --     7      1.008     5      1.007    20      0.977
                            21      0.977
     7   6      3.997 --     8      1.020     6      1.008    23      0.978
                            22      0.978
     8   6      3.997 --     7      1.020    26      0.988    24      0.988
                            25      0.987
     9   1      0.999 --     1      0.987
    10   1      0.999 --     1      0.988
    11   1      0.999 --     1      0.988
Note: The following floating-point exceptions are signalling: IEEE_UNDERFLOW_FLAG
normal termination of xtb
    12   1      0.999 --     2      0.978
    13   1      0.999 --     2      0.978
    14   1      0.999 --     3      0.977
    15   1      0.999 --     3      0.977
    16   1      0.999 --     4      0.977
    17   1      0.999 --     4      0.977
    18   1      0.999 --     5      0.977
    19   1      0.999 --     5      0.977
    20   1      0.999 --     6      0.977
    21   1      0.999 --     6      0.977
    22   1      0.999 --     7      0.978
    23   1      0.999 --     7      0.978
    24   1      0.999 --     8      0.988
    25   1      0.999 --     8      0.987
    26   1      0.999 --     8      0.988
 ---------------------------------------------------------------------------

Topologies differ in total number of bonds
Writing topology from bond orders to xtbtopo.mol

molecular dipole:
                 x           y           z       tot (Debye)
 q only:       -0.000       0.000      -0.000
   full:       -0.000       0.000      -0.000       0.000
molecular quadrupole (traceless):
                xx          xy          yy          xz          yz          zz
 q only:        0.341      -0.004      -0.387      -0.089       0.028       0.046
  q+dip:       -1.994       0.069       2.168       1.088      -0.151      -0.174
   full:       -0.869       0.029       0.940       0.456      -0.065      -0.071


           -------------------------------------------------
          | TOTAL ENERGY              -26.322066162305 Eh   |
          | GRADIENT NORM               0.017720690877 Eh/α |
          | HOMO-LUMO GAP              12.663747247048 eV   |
           -------------------------------------------------

------------------------------------------------------------------------
 * finished run on 2026/08/28 at 19:09:42.336     
------------------------------------------------------------------------
 total:
 * wall-time:     0 d,  0 h,  0 min,  0.047 sec
 *  cpu-time:     0 d,  0 h,  0 min,  0.029 sec
 * ratio c/w:     0.611 speedup
 SCF:
 * wall-time:     0 d,  0 h,  0 min,  0.020 sec
 *  cpu-time:     0 d,  0 h,  0 min,  0.015 sec
 * ratio c/w:     0.788 speedup

