      -----------------------------------------------------------      
     |                   =====================                   |     
     |                           x T B                           |     
     |                   =====================                   |     
     |                         S. Grimme                         |     
     |          Mulliken Center for Theoretical Chemistry        |     
     |                    University of Bonn                     |     
      -----------------------------------------------------------      

   * xtb version 6.7.1 (unknown) compiled by 'root@buildkitsandbox' on 2026-08-28

   xtb is free software: you can redistribute it and/or modify it under
   the terms of the GNU Lesser General Public License as published by
   the Free Software Foundation, either version 3 of the License, or
   (at your option) any later version.
   
   xtb is distributed in the hope that it will be useful,
   but WITHOUT ANY WARRANTY; without even the implied warranty of
   MERCHANTABILITY or FITNESS FOR A PARTICULAR PURPOSE.  See the
   GNU Lesser General Public License for more details.
   
   Cite this work as:
   * C. Bannwarth, E. Caldeweyher, S. Ehlert, A. Hansen, P. Pracht,
     J. Seibert, S. Spicher, S. Grimme, WIREs Comput. Mol. Sci., 2020, 11,
     e01493. DOI: 10.1002/wcms.1493
   
   for GFN2-xTB:
   * C. Bannwarth, S. Ehlert and S. Grimme., J. Chem. Theory Comput., 2019,
     15, 1652-1671. DOI: 10.1021/acs.jctc.8b01176
   for GFN1-xTB:
   * S. Grimme, C. Bannwarth, P. Shushkov, J. Chem. Theory Comput., 2017,
     13, 1989-2009. DOI: 10.1021/acs.jctc.7b00118
   for GFN0-xTB:
   * P. Pracht, E. Caldeweyher, S. Ehlert, S. Grimme, ChemRxiv, 2019, preprint.
     DOI: 10.26434/chemrxiv.8326202.v1
   for GFN-FF:
   * S. Spicher and S. Grimme, Angew. Chem. Int. Ed., 2020, 59, 15665-15673.
     DOI: 10.1002/anie.202004239
   
   for ALPB and GBSA implicit solvation:
   * S. Ehlert, M. Stahn, S. Spicher, S. Grimme, J. Chem. Theory Comput.,
     2021, 17, 4250-4261. DOI: 10.1021/acs.jctc.1c00471
   
   for ddCOSMO and CPCM-X implicit solvation:
   * M. Stahn, S. Ehlert, S. Grimme, J. Phys. Chem. A,
     2023, XX, XXXX-XXXX. DOI: 10.1021/acs.jpca.3c04382
   
   for DFT-D4:
   * E. Caldeweyher, C. Bannwarth and S. Grimme, J. Chem. Phys., 2017,
     147, 034112. DOI: 10.1063/1.4993215
   * E. Caldeweyher, S. Ehlert, A. Hansen, H. Neugebauer, S. Spicher,
     C. Bannwarth and S. Grimme, J. Chem. Phys., 2019, 150, 154122.
     DOI: 10.1063/1.5090222
   * E. Caldeweyher, J.-M. Mewes, S. Ehlert and S. Grimme, Phys. Chem. Chem. Phys.
     2020, 22, 8499-8512. DOI: 10.1039/D0CP00502A
   
   for sTDA-xTB:
   * S. Grimme and C. Bannwarth, J. Chem. Phys., 2016, 145, 054103.
     DOI: 10.1063/1.4959605
   
   in the mass-spec context:
   * V. Asgeirsson, C. Bauer and S. Grimme, Chem. Sci., 2017, 8, 4879.
     DOI: 10.1039/c7sc00601b
   * J. Koopman and S. Grimme, ACS Omega 2019, 4, 12, 15120-15133.
     DOI: 10.1021/acsomega.9b02011
   
   for metadynamics refer to:
   * S. Grimme, J. Chem. Theory Comput., 2019, 155, 2847-2862
     DOI: 10.1021/acs.jctc.9b00143
   
   for SPH calculations refer to:
   * S. Spicher and S. Grimme, J. Chem. Theory Comput., 2021, 17, 1701-1714
     DOI: 10.1021/acs.jctc.0c01306
   
   for ONIOM refer to:
   * C. Plett, A. Katbashev, S. Ehlert, S. Grimme, M. Bursch,
     Phys. Chem. Chem. Phys., 2023, 25, 17860-17868. DOI: 10.1039/D3CP02178E
   
   for DIPRO refer to:
   * J. Kohn, N. Gildemeister, S. Grimme, D. Fazzi, A. Hansen,
     J. Chem. Phys. 159, 144106 (2023). DOI: 10.1063/5.0167484
   
   for PTB refer to:
   * S. Grimme, M. Mueller, A. Hansen, J. Chem. Phys., 2023, 158, 124111.
     DOI: 10.1063/5.0137838
   
   with help from (in alphabetical order)
   P. Atkinson, C. Bannwarth, F. Bohle, G. Brandenburg, E. Caldeweyher,
   M. Checinski, S. Dohm, S. Ehlert, S. Ehrlich, M. Friede, T. Froitzheim,
   I. Gerasimov, C. Hölzer, A. Katbashev, J. Kohn, J. Koopman, C. Lavigne,
   S. Lehtola, F. März, M. Müller, F. Musil, H. Neugebauer, J. Pisarek,
   C. Plett, P. Pracht, F. Pultar, J. Seibert, P. Shushkov, S. Spicher,
   M. Stahn, M. Steiner, T. Strunk, J. Stückrath, T. Rose, and J. Unsleber
   
 * started run on 2026/08/28 at 19:10:04.359     
   ID    Z sym.   atoms
    1    6 C      1-8
    2    1 H      9-26

           -------------------------------------------------
          |                Calculation Setup                |
           -------------------------------------------------

          program call               : xtb in.xyz --gfn 2 --opt --norestart
          hostname                   : 756d39058c4f
          coordinate file            : in.xyz
          random seed                :            1518346637


           -------------------------------------------------
          |                 G F N 2 - x T B                 |
           -------------------------------------------------

        Reference                      10.1021/acs.jctc.8b01176
      * Hamiltonian:
        H0-scaling (s, p, d)           1.850000    2.230000    2.230000
        zeta-weighting                 0.500000
      * Dispersion:
        s8                             2.700000
        a1                             0.520000
        a2                             5.000000
        s9                             5.000000
      * Repulsion:
        kExp                           1.500000    1.000000
        rExp                           1.000000
      * Coulomb:
        alpha                          2.000000
        third order                    shell-resolved
        anisotropic                    true
        a3                             3.000000
        a5                             4.000000
        cn-shift                       1.200000
        cn-exp                         4.000000
        max-rad                        5.000000


          ...................................................
          :                      SETUP                      :
          :.................................................:
          :  # basis functions                  50          :
          :  # atomic orbitals                  50          :
          :  # shells                           34          :
          :  # electrons                        50          :
          :  max. iterations                   250          :
          :  Hamiltonian                  GFN2-xTB          :
          :  restarted?                      false          :
          :  GBSA solvation                  false          :
          :  PC potential                    false          :
          :  electronic temp.          300.0000000     K    :
          :  accuracy                    1.0000000          :
          :  -> integral cutoff          0.2500000E+02      :
          :  -> integral neglect         0.1000000E-07      :
          :  -> SCF convergence          0.1000000E-05 Eh   :
          :  -> wf. convergence          0.1000000E-03 e    :
          :  Broyden damping             0.4000000          :
          :  net charge                          0          :
          :  unpaired electrons                  0          :
          ...................................................

 iter      E             dE          RMSdq      gap      omega  full diag
   1    -26.6353418 -0.266353E+02  0.268E+00   12.59       0.0  T
   2    -26.7069945 -0.716528E-01  0.150E+00   12.63       1.0  T
   3    -26.7078929 -0.898412E-03  0.774E-01   12.65       1.0  T
   4    -26.7080897 -0.196787E-03  0.870E-02   12.67       1.0  T
   5    -26.7080964 -0.670245E-05  0.460E-02   12.66       1.0  T
   6    -26.7080978 -0.141084E-05  0.205E-03   12.66       9.6  T
   7    -26.7080978 -0.215967E-07  0.957E-04   12.66      20.5  T
   8    -26.7080978 -0.131235E-08  0.249E-04   12.66      78.6  T

   *** convergence criteria satisfied after 8 iterations ***

         #    Occupation            Energy/Eh            Energy/eV
      -------------------------------------------------------------
         1        2.0000           -0.6217720             -16.9193
       ...           ...                  ...                  ...
        19        2.0000           -0.4429463             -12.0532
        20        2.0000           -0.4332238             -11.7886
        21        2.0000           -0.4290180             -11.6742
        22        2.0000           -0.4267084             -11.6113
        23        2.0000           -0.4185985             -11.3906
        24        2.0000           -0.4170040             -11.3473
        25        2.0000           -0.4129599             -11.2372 (HOMO)
        26                          0.0524242               1.4265 (LUMO)
        27                          0.0994613               2.7065
        28                          0.1069822               2.9111
        29                          0.1139184               3.0999
        30                          0.1222816               3.3275
       ...                                ...                  ...
        50                          0.3157356               8.5916
      -------------------------------------------------------------
                  HL-Gap            0.4653841 Eh           12.6637 eV
             Fermi-level           -0.1802679 Eh           -4.9053 eV

 SCC (total)                   0 d,  0 h,  0 min,  0.015 sec
 SCC setup                      ...        0 min,  0.000 sec (  1.000%)
 Dispersion                     ...        0 min,  0.000 sec (  1.061%)
 classical contributions        ...        0 min,  0.000 sec (  0.349%)
 integral evaluation            ...        0 min,  0.001 sec (  9.176%)
 iterations                     ...        0 min,  0.008 sec ( 50.103%)
 molecular gradient             ...        0 min,  0.005 sec ( 35.110%)
 printout                       ...        0 min,  0.000 sec (  3.120%)

         :::::::::::::::::::::::::::::::::::::::::::::::::::::
         ::                     SUMMARY                     ::
         :::::::::::::::::::::::::::::::::::::::::::::::::::::
         :: total energy             -26.322066162305 Eh    ::
         :: gradient norm              0.017720690877 Eh/a0 ::
         :: HOMO-LUMO gap             12.663747247048 eV    ::
         ::.................................................::
         :: SCC energy               -26.708190880933 Eh    ::
         :: -> isotropic ES            0.004665255585 Eh    ::
         :: -> anisotropic ES          0.009120916291 Eh    ::
         :: -> anisotropic XC          0.016954136549 Eh    ::
         :: -> dispersion             -0.014841361705 Eh    ::
         :: repulsion energy           0.386124718628 Eh    ::
         :: add. restraining           0.000000000000 Eh    ::
         :: total charge               0.000000000000 e     ::
         :::::::::::::::::::::::::::::::::::::::::::::::::::::

      ----------------------------------------------------------- 
     |                   =====================                   |
     |                        A N C O P T                        |
     |                   =====================                   |
     |               Approximate Normal Coordinate               |
     |                Rational Function Optimizer                |
      ----------------------------------------------------------- 

          ...................................................
          :                      SETUP                      :
          :.................................................:
          :   optimization level            normal          :
          :   max. optcycles                   200          :
          :   ANC micro-cycles                  20          :
          :   degrees of freedom                72          :
          :.................................................:
          :   RF solver                   davidson          :
          :   write xtbopt.log                true          :
          :   linear?                        false          :
          :   energy convergence         0.5000000E-05 Eh   :
          :   grad. convergence          0.1000000E-02 Eh/α :
          :   maximum RF displ.          1.0000000          :
          :   Hlow (freq-cutoff)         0.1000000E-01      :
          :   Hmax (freq-cutoff)         5.0000000          :
          :   S6 in model hess.         20.0000000          :
          ...................................................

generating ANC from exact Hessian ...
Using Lindh-Hessian (1995)
 Shifting diagonal of input Hessian by    9.1728420515531876E-003
 Lowest  eigenvalues of input Hessian
    0.000000    0.000000    0.000000    0.000000    0.000000    0.000000
    0.010000    0.010304    0.011255    0.012711    0.014263    0.014437
    0.016222    0.017344    0.019528    0.020268    0.022231    0.029586
 Highest eigenvalues
    1.189859    1.210102    1.210133    1.237191    1.268412    1.298670


........................................................................
.............................. CYCLE    1 ..............................
........................................................................

 iter      E             dE          RMSdq      gap      omega  full diag
   1    -26.7080978 -0.267081E+02  0.780E-05   12.66       0.0  T
   2    -26.7080978 -0.726175E-11  0.445E-05   12.66     440.7  T
   3    -26.7080978 -0.127187E-11  0.925E-06   12.66    2121.0  T
     SCC iter.                  ...        0 min,  0.003 sec
     gradient                   ...        0 min,  0.006 sec
 * total energy  :   -26.3220662 Eh     change       -0.1115197E-09 Eh
   gradient norm :     0.0177201 Eh/α   predicted     0.0000000E+00 (-100.00%)
   displ. norm   :     0.1058246 α      lambda       -0.1069704E-02
   maximum displ.:     0.0706269 α      in ANC's #8, #32, #48, ...

........................................................................
.............................. CYCLE    2 ..............................
........................................................................

 iter      E             dE          RMSdq      gap      omega  full diag
   1    -26.7184795 -0.267185E+02  0.102E-01   12.59       0.0  T
   2    -26.7184836 -0.404288E-05  0.594E-02   12.59       1.0  T
   3    -26.7184840 -0.381133E-06  0.409E-03   12.59       4.8  T
   4    -26.7184840 -0.249989E-07  0.159E-03   12.59      12.4  T
   5    -26.7184840 -0.476529E-09  0.659E-04   12.59      29.8  T
   6    -26.7184840 -0.796465E-09  0.718E-05   12.59     273.2  T
     SCC iter.                  ...        0 min,  0.007 sec
     gradient                   ...        0 min,  0.004 sec
 * total energy  :   -26.3226084 Eh     change       -0.5422063E-03 Eh
   gradient norm :     0.0057781 Eh/α   predicted    -0.5408422E-03 (  -0.25%)
   displ. norm   :     0.0136782 α      lambda       -0.3627292E-04
   maximum displ.:     0.0078041 α      in ANC's #6, #8, #70, ...

........................................................................
.............................. CYCLE    3 ..............................
........................................................................

 iter      E             dE          RMSdq      gap      omega  full diag
   1    -26.7200055 -0.267200E+02  0.116E-02   12.59       0.0  T
   2    -26.7200059 -0.383849E-06  0.627E-03   12.59       3.1  T
   3    -26.7200059 -0.382696E-08  0.208E-03   12.59       9.4  T
   4    -26.7200059 -0.129083E-08  0.183E-04   12.59     107.5  T
   5    -26.7200059 -0.788027E-10  0.101E-04   12.59     194.9  T
     SCC iter.                  ...        0 min,  0.006 sec
     gradient                   ...        0 min,  0.008 sec
 * total energy  :   -26.3226315 Eh     change       -0.2313694E-04 Eh
   gradient norm :     0.0017740 Eh/α   predicted    -0.1842752E-04 ( -20.35%)
   displ. norm   :     0.0115338 α      lambda       -0.4817732E-05
   maximum displ.:     0.0096996 α      in ANC's #6, #13, #70, ...

........................................................................
.............................. CYCLE    4 ..............................
........................................................................

 iter      E             dE          RMSdq      gap      omega  full diag
   1    -26.7204699 -0.267205E+02  0.787E-03   12.59       0.0  T
   2    -26.7204700 -0.981459E-07  0.442E-03   12.59       4.4  T
   3    -26.7204700 -0.528217E-09  0.103E-03   12.59      19.0  T
   4    -26.7204700 -0.117158E-08  0.117E-04   12.59     168.0  T
   5    -26.7204700 -0.121723E-09  0.436E-05   12.59     449.6  T
     SCC iter.                  ...        0 min,  0.005 sec
     gradient                   ...        0 min,  0.004 sec
 * total energy  :   -26.3226338 Eh     change       -0.2313259E-05 Eh
   gradient norm :     0.0007623 Eh/α   predicted    -0.2442804E-05 (   5.60%)
   displ. norm   :     0.0031376 α      lambda       -0.6074488E-06
   maximum displ.:     0.0024591 α      in ANC's #8, #21, #70, ...

   *** GEOMETRY OPTIMIZATION CONVERGED AFTER 4 ITERATIONS ***

------------------------------------------------------------------------
 total energy gain   :        -0.0005677 Eh       -0.3562 kcal/mol
 total RMSD          :         0.0196977 a0        0.0104 Å
 total power (kW/mol):        -0.3725956 (step)  -22.9879 (real)
------------------------------------------------------------------------

 ANCopt (total)                0 d,  0 h,  0 min,  0.065 sec
 optimizer setup                ...        0 min,  0.000 sec (  0.433%)
 model hessian                  ...        0 min,  0.012 sec ( 19.108%)
 ANC generation                 ...        0 min,  0.002 sec (  2.825%)
 coordinate transformation      ...        0 min,  0.000 sec (  0.182%)
 single point calculation       ...        0 min,  0.049 sec ( 75.474%)
 optimization log               ...        0 min,  0.000 sec (  0.499%)
 hessian update                 ...        0 min,  0.000 sec (  0.069%)
 rational function              ...        0 min,  0.000 sec (  0.598%)

================
 final structure:
================
26
 xtb: 6.7.1 (unknown)
C            0.86421485222464        0.05692335349403       -0.00294031683232
C            2.38792483741878        0.05469108628754       -0.02883817175023
C            2.93263294433371       -0.03726167404251       -1.45237492473075
C            4.45901806087755       -0.03930482422946       -1.48499061450325
C            5.00324896049571       -0.13114700381076       -2.90856599442635
C            6.52963412577499       -0.13218757204931       -2.94124670494271
C            7.07434149456499       -0.22321141012106       -4.36484324980815
C            8.59805029461534       -0.22289609135351       -4.39090536755017
H            0.49823558126176        0.12295414402022        1.01886565308429
H            0.47429310650981       -0.85519927598624       -0.44932694304424
H            0.47495749367430        0.90445618742639       -0.56279375532591
H            2.75929133126440       -0.79114605582017        0.55423317629760
H            2.75991877254392        0.96813424711926        0.44081164001615
H            2.56025076545796        0.80834310300782       -2.03554681956558
H            2.56027125887573       -0.95085481090799       -1.92194479156135
H            4.83109516279550       -0.88470326326442       -0.90123018520813
H            4.83095610611347        0.87422004102121       -1.01482408155651
H            4.63065946075849        0.71395314430228       -3.49243770955027
H            4.63182364883028       -1.04495309642455       -3.37858357509149
H            6.90265048684883       -0.97770868955689       -2.35836288979384
H            6.90136135646837        0.78152521140137       -2.47140162864035
H            6.70153037262682        0.62205726434252       -4.94782072700335
H            6.70379198215587       -1.13722907165954       -4.83451405824052
H            8.98647332208233        0.68986342452340       -3.94451278687743
H            8.96402921346253       -0.28824182514893       -5.41275543714635
H            8.98880500796392       -1.06979654257069       -3.83113973624878

 Bond Distances (Angstroems)
 ---------------------------
C1-C2=1.5239         C1-H9=1.0874         C1-H10=1.0878        C1-H11=1.0878        C2-C1=1.5239         C2-C3=1.5270         
C2-H12=1.0924        C2-H13=1.0924        C3-C2=1.5270         C3-C4=1.5267         C3-H14=1.0926        C3-H15=1.0926        
C4-C3=1.5267         C4-C5=1.5268         C4-H16=1.0927        C4-H17=1.0927        C5-C4=1.5268         C5-C6=1.5267         
C5-H18=1.0927        C5-H19=1.0927        C6-C5=1.5267         C6-C7=1.5270         C6-H20=1.0926        C6-H21=1.0926        
C7-C6=1.5270         C7-C8=1.5239         C7-H22=1.0924        C7-H23=1.0924        C8-C7=1.5239         C8-H24=1.0878        
C8-H25=1.0874        C8-H26=1.0878        H9-C1=1.0874         H10-C1=1.0878        H11-C1=1.0878        H12-C2=1.0924        
H13-C2=1.0924        H14-C3=1.0926        H15-C3=1.0926        H16-C4=1.0927        H17-C4=1.0927        H18-C5=1.0927        
H19-C5=1.0927        H20-C6=1.0926        H21-C6=1.0926        H22-C7=1.0924        H23-C7=1.0924        H24-C8=1.0878        
H25-C8=1.0874        H26-C8=1.0878        
 C  H  Rav=1.0909 sigma=0.0023  Rmin=1.0874  Rmax=1.0927    18
 C  C  Rav=1.5260 sigma=0.0013  Rmin=1.5239  Rmax=1.5270     7

 selected bond angles (degree)
 --------------------
H9-C1-C2=110.65                H10-C1-C2=110.50               H10-C1-H9=108.41               H11-C1-C2=110.50               
H11-C1-H9=108.41               H11-C1-H10=108.29              C3-C2-C1=111.88                H12-C2-C1=109.39               
H12-C2-C3=109.25               H13-C2-C1=109.39               H13-C2-C3=109.25               H13-C2-H12=107.59              
C4-C3-C2=112.13                H14-C3-C2=109.23               H14-C3-C4=109.29               H15-C3-C2=109.23               
H15-C3-C4=109.29               H15-C3-H14=107.55              C5-C4-C3=112.11                H16-C4-C3=109.27               
H16-C4-C5=109.28               H17-C4-C3=109.27               H17-C4-C5=109.28               H17-C4-H16=107.52              
C6-C5-C4=112.11                H18-C5-C4=109.28               H18-C5-C6=109.27               H19-C5-C4=109.28               
H19-C5-C6=109.27               H19-C5-H18=107.52              C7-C6-C5=112.13                H20-C6-C5=109.29               
H20-C6-C7=109.24               H21-C6-C5=109.29               H21-C6-C7=109.23               H21-C6-H20=107.55              
C8-C7-C6=111.88                H22-C7-C6=109.25               H22-C7-C8=109.39               H23-C7-C6=109.25               
H23-C7-C8=109.39               H23-C7-H22=107.59              H24-C8-C7=110.50               H25-C8-C7=110.65               
H25-C8-H24=108.41              H26-C8-C7=110.50               H26-C8-H24=108.29              H26-C8-H25=108.41              

 selected dihedral angles (degree)
 ---------------------------------
C3-C2-C1-H9=180.00            C3-C2-C1-H10= 59.92           C3-C2-C1-H11=300.08           H12-C2-C1-H9= 58.81           
H12-C2-C1-H10=298.72          H12-C2-C1-H11=178.89          H13-C2-C1-H9=301.19           H13-C2-C1-H10=181.11          
H13-C2-C1-H11= 61.28          C4-C3-C2-C1=179.97            C4-C3-C2-H12=301.25           C4-C3-C2-H13= 58.70           
H14-C3-C2-C1= 58.67           H14-C3-C2-H12=179.95          H14-C3-C2-H13=297.40          H15-C3-C2-C1=301.28           
H15-C3-C2-H12= 62.56          H15-C3-C2-H13=180.01          C5-C4-C3-C2=180.00            C5-C4-C3-H14=301.27           
C5-C4-C3-H15= 58.73           H16-C4-C3-C2= 58.70           H16-C4-C3-H14=179.97          H16-C4-C3-H15=297.42          
H17-C4-C3-C2=301.30           H17-C4-C3-H14= 62.57          H17-C4-C3-H15=180.03          C6-C5-C4-C3=179.96            
C6-C5-C4-H16=301.26           C6-C5-C4-H17= 58.66           H18-C5-C4-C3= 58.66           H18-C5-C4-H16=179.97          
H18-C5-C4-H17=297.37          H19-C5-C4-C3=301.26           H19-C5-C4-H16= 62.56          H19-C5-C4-H17=179.97          
C7-C6-C5-C4=180.03            C7-C6-C5-H18=301.33           C7-C6-C5-H19= 58.73           H20-C6-C5-C4= 58.76           
H20-C6-C5-H18=180.06          H20-C6-C5-H19=297.45          H21-C6-C5-C4=301.30           H21-C6-C5-H18= 62.60          
H21-C6-C5-H19=179.99          C8-C7-C6-C5=179.96            C8-C7-C6-H20=301.27           C8-C7-C6-H21= 58.66           
H22-C7-C6-C5= 58.69           H22-C7-C6-H20=180.00          H22-C7-C6-H21=297.39          H23-C7-C6-C5=301.24           
H23-C7-C6-H20= 62.55          H23-C7-C6-H21=179.94          H24-C8-C7-C6=300.08           H24-C8-C7-H22= 61.27          
H24-C8-C7-H23=178.89          H25-C8-C7-C6=180.00           H25-C8-C7-H22=301.19          H25-C8-C7-H23= 58.81          
H26-C8-C7-C6= 59.92           H26-C8-C7-H22=181.11          H26-C8-C7-H23=298.72          
           -------------------------------------------------
          |                Final Singlepoint                |
           -------------------------------------------------

          ...................................................
          :                      SETUP                      :
          :.................................................:
          :  # basis functions                  50          :
          :  # atomic orbitals                  50          :
          :  # shells                           34          :
          :  # electrons                        50          :
          :  max. iterations                   250          :
          :  Hamiltonian                  GFN2-xTB          :
          :  restarted?                      false          :
          :  GBSA solvation                  false          :
          :  PC potential                    false          :
          :  electronic temp.          300.0000000     K    :
          :  accuracy                    1.0000000          :
          :  -> integral cutoff          0.2500000E+02      :
          :  -> integral neglect         0.1000000E-07      :
          :  -> SCF convergence          0.1000000E-05 Eh   :
          :  -> wf. convergence          0.1000000E-03 e    :
          :  Broyden damping             0.4000000          :
          :  net charge                          0          :
          :  unpaired electrons                  0          :
          ...................................................

 iter      E             dE          RMSdq      gap      omega  full diag
   1    -26.7204700 -0.267205E+02  0.733E-06   12.59       0.0  T
   2    -26.7204700 -0.117240E-12  0.410E-06   12.59    4783.9  T
   3    -26.7204700 -0.213163E-13  0.181E-06   12.59   10834.1  T

   *** convergence criteria satisfied after 3 iterations ***

         #    Occupation            Energy/Eh            Energy/eV
      -------------------------------------------------------------
         1        2.0000           -0.6223035             -16.9337
       ...           ...                  ...                  ...
        19        2.0000           -0.4437457             -12.0749
        20        2.0000           -0.4324385             -11.7673
        21        2.0000           -0.4272858             -11.6270
        22        2.0000           -0.4271034             -11.6221
        23        2.0000           -0.4187252             -11.3941
        24        2.0000           -0.4166303             -11.3371
        25        2.0000           -0.4150257             -11.2934 (HOMO)
        26                          0.0475137               1.2929 (LUMO)
        27                          0.1072145               2.9175
        28                          0.1140236               3.1027
        29                          0.1151180               3.1325
        30                          0.1238260               3.3695
       ...                                ...                  ...
        50                          0.3235451               8.8041
      -------------------------------------------------------------
                  HL-Gap            0.4625394 Eh           12.5863 eV
             Fermi-level           -0.1837560 Eh           -5.0003 eV

 SCC (total)                   0 d,  0 h,  0 min,  0.014 sec
 SCC setup                      ...        0 min,  0.000 sec (  0.896%)
 Dispersion                     ...        0 min,  0.000 sec (  0.884%)
 classical contributions        ...        0 min,  0.000 sec (  0.367%)
 integral evaluation            ...        0 min,  0.004 sec ( 30.541%)
 iterations                     ...        0 min,  0.004 sec ( 27.576%)
 molecular gradient             ...        0 min,  0.006 sec ( 38.817%)
 printout                       ...        0 min,  0.000 sec (  0.800%)

         :::::::::::::::::::::::::::::::::::::::::::::::::::::
         ::                     SUMMARY                     ::
         :::::::::::::::::::::::::::::::::::::::::::::::::::::
         :: total energy             -26.322633818937 Eh    ::
         :: gradient norm              0.000762377360 Eh/a0 ::
         :: HOMO-LUMO gap             12.586337690172 eV    ::
         ::.................................................::
         :: SCC energy               -26.720565154620 Eh    ::
         :: -> isotropic ES            0.004825301441 Eh    ::
         :: -> anisotropic ES          0.008700184059 Eh    ::
         :: -> anisotropic XC          0.016416371425 Eh    ::
         :: -> dispersion             -0.014825445930 Eh    ::
         :: repulsion energy           0.397931335682 Eh    ::
         :: add. restraining           0.000000000000 Eh    ::
         :: total charge              -0.000000000000 e     ::
         :::::::::::::::::::::::::::::::::::::::::::::::::::::

           -------------------------------------------------
          |                Property Printout                |
           -------------------------------------------------

    * Orbital Energies and Occupations

         #    Occupation            Energy/Eh            Energy/eV
      -------------------------------------------------------------
         1        2.0000           -0.6223035             -16.9337
       ...           ...                  ...                  ...
        13        2.0000           -0.4894572             -13.3188
        14        2.0000           -0.4825824             -13.1317
        15        2.0000           -0.4672218             -12.7138
        16        2.0000           -0.4665279             -12.6949
        17        2.0000           -0.4487856             -12.2121
        18        2.0000           -0.4465541             -12.1514
        19        2.0000           -0.4437457             -12.0749
        20        2.0000           -0.4324385             -11.7673
        21        2.0000           -0.4272858             -11.6270
        22        2.0000           -0.4271034             -11.6221
        23        2.0000           -0.4187252             -11.3941
        24        2.0000           -0.4166303             -11.3371
        25        2.0000           -0.4150257             -11.2934 (HOMO)
        26                          0.0475137               1.2929 (LUMO)
        27                          0.1072145               2.9175
        28                          0.1140236               3.1027
        29                          0.1151180               3.1325
        30                          0.1238260               3.3695
        31                          0.1360645               3.7025
        32                          0.1393312               3.7914
        33                          0.1491470               4.0585
        34                          0.1626248               4.4252
        35                          0.1722662               4.6876
        36                          0.1758887               4.7862
       ...                                ...                  ...
        50                          0.3235451               8.8041
      -------------------------------------------------------------
                  HL-Gap            0.4625394 Eh           12.5863 eV
             Fermi-level           -0.1837560 Eh           -5.0003 eV

     #   Z          covCN         q      C6AA      α(0)
     1   6          3.752    -0.102    22.511     6.766
     2   6          3.801    -0.053    21.524     6.605
     3   6          3.803    -0.059    21.633     6.622
     4   6          3.803    -0.058    21.620     6.620
     5   6          3.803    -0.058    21.620     6.620
     6   6          3.803    -0.059    21.633     6.622
     7   6          3.801    -0.053    21.524     6.605
     8   6          3.752    -0.102    22.511     6.766
     9   1          0.925     0.033     2.550     2.497
    10   1          0.925     0.033     2.541     2.493
    11   1          0.925     0.033     2.541     2.493
    12   1          0.924     0.028     2.608     2.526
    13   1          0.924     0.028     2.608     2.526
    14   1          0.924     0.030     2.591     2.517
    15   1          0.924     0.030     2.591     2.517
    16   1          0.924     0.028     2.608     2.526
    17   1          0.924     0.028     2.608     2.526
    18   1          0.924     0.028     2.608     2.526
    19   1          0.924     0.028     2.608     2.526
    20   1          0.924     0.030     2.591     2.517
    21   1          0.924     0.030     2.591     2.517
    22   1          0.924     0.028     2.608     2.526
    23   1          0.924     0.028     2.608     2.526
    24   1          0.925     0.033     2.541     2.493
    25   1          0.925     0.033     2.550     2.497
    26   1          0.925     0.033     2.541     2.493

 Mol. C6AA /au·bohr⁶  :       4381.851419
 Mol. C8AA /au·bohr⁸  :      90677.703511
 Mol. α(0) /au        :         98.466005


Wiberg/Mayer (AO) data.
largest (>0.10) Wiberg bond orders for each atom

 ---------------------------------------------------------------------------
     #   Z sym  total        # sym  WBO       # sym  WBO       # sym  WBO
 ---------------------------------------------------------------------------
     1   6      3.997 --     2      1.019    10      0.988    11      0.988
                             9      0.988
     2   6      3.998 --     1      1.019     3      1.008    12      0.979
                            13      0.979
     3   6      3.997 --     2      1.008     4      1.007    15      0.978
                            14      0.978
     4   6      3.997 --     3      1.007     5      1.007    16      0.978
                            17      0.978
     5   6      3.997 --     6      1.007     4      1.007    19      0.978
                            18      0.978
     6   6      3.997 --     7      1.008     5      1.007    20      0.978
                            21      0.978
     7   6      3.998 --     8      1.019     6      1.008    23      0.979
                            22      0.979
     8   6      3.997 --     7      1.019    26      0.988    24      0.988
                            25      0.988
     9   1      0.999 --     1      0.988
    10   1      0.999 --     1      0.988
    11   1      0.999 --     1      0.988
    12   1      0.999 --     2      0.979
    13   1      0.999 --     2      0.979
    14   1      0.999 --     3      0.978
    15   1      0.999 --     3      0.978
    16   1      0.999 --     4      0.978
    17   1      0.999 --     4      0.978
    18   1      0.999 --     5      0.978
    19   1      0.999 --     5      0.978
    20   1      0.999 --     6      0.978
    21   1      0.999 --     6      0.978
    22   1      0.999 --     7      0.979
    23   1      0.999 --     7      0.979
    24   1      0.999 --     8      0.988
    25   1      0.999 --     8      0.988
    26   1      0.999 --     8      0.988
 ---------------------------------------------------------------------------

Topologies differ in total number of bonds
Writing topology from bond orders to xtbtopo.mol

molecular dipole:
                 x           y           z       tot (Debye)
 q only:        0.000       0.000      -0.000
   full:        0.000       0.000      -0.000       0.000
molecular quadrupole (traceless):
                xx          xy          yy          xz          yz          zz
 q only:        0.491      -0.012      -0.474      -0.213       0.029      -0.017
  q+dip:       -1.794       0.056       2.166       0.889      -0.164      -0.373
   full:       -0.716       0.022       0.928       0.343      -0.074      -0.211

           -------------------------------------------------
          |                Geometry Summary                 |
           -------------------------------------------------
Note: The following floating-point exceptions are signalling: IEEE_UNDERFLOW_FLAG
normal termination of xtb

      molecular mass/u    :      114.2288207
   center of mass at/Å    :        4.7311336      -0.0842723      -2.1968401
  moments of inertia/u·Å² :        0.4735110E+02   0.1015511E+04   0.1037801E+04
rotational constants/cm⁻¹ :        0.3560135E+00   0.1660015E-01   0.1624361E-01

 * 25 selected distances

     #   Z          #   Z                                           value/Å
     1   6          2   6                                         1.5239318
     2   6          3   6                                         1.5269642 (max)
     3   6          4   6                                         1.5267351
     4   6          5   6                                         1.5268234
     5   6          6   6                                         1.5267355
     6   6          7   6                                         1.5269640
     7   6          8   6                                         1.5239318
     1   6          9   1                                         1.0873769
     1   6         10   1                                         1.0877812
     1   6         11   1                                         1.0877818
     2   6         12   1                                         1.0923946
     2   6         13   1                                         1.0923960
     3   6         14   1                                         1.0926141
     3   6         15   1                                         1.0926123
     4   6         16   1                                         1.0926648
     4   6         17   1                                         1.0926676
     5   6         18   1                                         1.0926681
     5   6         19   1                                         1.0926642
     6   6         20   1                                         1.0926120
     6   6         21   1                                         1.0926147
     7   6         22   1                                         1.0923966
     7   6         23   1                                         1.0923947
     8   6         24   1                                         1.0877817
     8   6         25   1                                         1.0873769 (min)
     8   6         26   1                                         1.0877810

 * 2 distinct bonds (by element types)

   Z      Z             #   av. dist./Å        max./Å        min./Å
   1 H    6 C          18     1.0909211     1.0926681     1.0873769
   6 C    6 C           7     1.5260122     1.5269642     1.5239318


optimized geometry written to: xtbopt.xyz


           -------------------------------------------------
          | TOTAL ENERGY              -26.322633818937 Eh   |
          | GRADIENT NORM               0.000762377360 Eh/α |
          | HOMO-LUMO GAP              12.586337690172 eV   |
           -------------------------------------------------

------------------------------------------------------------------------
 * finished run on 2026/08/28 at 19:10:04.476     
------------------------------------------------------------------------
 total:
 * wall-time:     0 d,  0 h,  0 min,  0.117 sec
 *  cpu-time:     0 d,  0 h,  0 min,  0.108 sec
 * ratio c/w:     0.922 speedup
 SCF:
 * wall-time:     0 d,  0 h,  0 min,  0.015 sec
 *  cpu-time:     0 d,  0 h,  0 min,  0.015 sec
 * ratio c/w:     0.982 speedup
 ANC optimizer:
 * wall-time:     0 d,  0 h,  0 min,  0.082 sec
 *  cpu-time:     0 d,  0 h,  0 min,  0.077 sec
 * ratio c/w:     0.940 speedup

