      -----------------------------------------------------------      
     |                   =====================                   |     
     |                           x T B                           |     
     |                   =====================                   |     
     |                         S. Grimme                         |     
     |          Mulliken Center for Theoretical Chemistry        |     
     |                    University of Bonn                     |     
      -----------------------------------------------------------      

   * xtb version 6.7.1 (unknown) compiled by 'root@buildkitsandbox' on 2026-08-28

   xtb is free software: you can redistribute it and/or modify it under
   the terms of the GNU Lesser General Public License as published by
   the Free Software Foundation, either version 3 of the License, or
   (at your option) any later version.
   
   xtb is distributed in the hope that it will be useful,
   but WITHOUT ANY WARRANTY; without even the implied warranty of
   MERCHANTABILITY or FITNESS FOR A PARTICULAR PURPOSE.  See the
   GNU Lesser General Public License for more details.
   
   Cite this work as:
   * C. Bannwarth, E. Caldeweyher, S. Ehlert, A. Hansen, P. Pracht,
     J. Seibert, S. Spicher, S. Grimme, WIREs Comput. Mol. Sci., 2020, 11,
     e01493. DOI: 10.1002/wcms.1493
   
   for GFN2-xTB:
   * C. Bannwarth, S. Ehlert and S. Grimme., J. Chem. Theory Comput., 2019,
     15, 1652-1671. DOI: 10.1021/acs.jctc.8b01176
   for GFN1-xTB:
   * S. Grimme, C. Bannwarth, P. Shushkov, J. Chem. Theory Comput., 2017,
     13, 1989-2009. DOI: 10.1021/acs.jctc.7b00118
   for GFN0-xTB:
   * P. Pracht, E. Caldeweyher, S. Ehlert, S. Grimme, ChemRxiv, 2019, preprint.
     DOI: 10.26434/chemrxiv.8326202.v1
   for GFN-FF:
   * S. Spicher and S. Grimme, Angew. Chem. Int. Ed., 2020, 59, 15665-15673.
     DOI: 10.1002/anie.202004239
   
   for ALPB and GBSA implicit solvation:
   * S. Ehlert, M. Stahn, S. Spicher, S. Grimme, J. Chem. Theory Comput.,
     2021, 17, 4250-4261. DOI: 10.1021/acs.jctc.1c00471
   
   for ddCOSMO and CPCM-X implicit solvation:
   * M. Stahn, S. Ehlert, S. Grimme, J. Phys. Chem. A,
     2023, XX, XXXX-XXXX. DOI: 10.1021/acs.jpca.3c04382
   
   for DFT-D4:
   * E. Caldeweyher, C. Bannwarth and S. Grimme, J. Chem. Phys., 2017,
     147, 034112. DOI: 10.1063/1.4993215
   * E. Caldeweyher, S. Ehlert, A. Hansen, H. Neugebauer, S. Spicher,
     C. Bannwarth and S. Grimme, J. Chem. Phys., 2019, 150, 154122.
     DOI: 10.1063/1.5090222
   * E. Caldeweyher, J.-M. Mewes, S. Ehlert and S. Grimme, Phys. Chem. Chem. Phys.
     2020, 22, 8499-8512. DOI: 10.1039/D0CP00502A
   
   for sTDA-xTB:
   * S. Grimme and C. Bannwarth, J. Chem. Phys., 2016, 145, 054103.
     DOI: 10.1063/1.4959605
   
   in the mass-spec context:
   * V. Asgeirsson, C. Bauer and S. Grimme, Chem. Sci., 2017, 8, 4879.
     DOI: 10.1039/c7sc00601b
   * J. Koopman and S. Grimme, ACS Omega 2019, 4, 12, 15120-15133.
     DOI: 10.1021/acsomega.9b02011
   
   for metadynamics refer to:
   * S. Grimme, J. Chem. Theory Comput., 2019, 155, 2847-2862
     DOI: 10.1021/acs.jctc.9b00143
   
   for SPH calculations refer to:
   * S. Spicher and S. Grimme, J. Chem. Theory Comput., 2021, 17, 1701-1714
     DOI: 10.1021/acs.jctc.0c01306
   
   for ONIOM refer to:
   * C. Plett, A. Katbashev, S. Ehlert, S. Grimme, M. Bursch,
     Phys. Chem. Chem. Phys., 2023, 25, 17860-17868. DOI: 10.1039/D3CP02178E
   
   for DIPRO refer to:
   * J. Kohn, N. Gildemeister, S. Grimme, D. Fazzi, A. Hansen,
     J. Chem. Phys. 159, 144106 (2023). DOI: 10.1063/5.0167484
   
   for PTB refer to:
   * S. Grimme, M. Mueller, A. Hansen, J. Chem. Phys., 2023, 158, 124111.
     DOI: 10.1063/5.0137838
   
   with help from (in alphabetical order)
   P. Atkinson, C. Bannwarth, F. Bohle, G. Brandenburg, E. Caldeweyher,
   M. Checinski, S. Dohm, S. Ehlert, S. Ehrlich, M. Friede, T. Froitzheim,
   I. Gerasimov, C. Hölzer, A. Katbashev, J. Kohn, J. Koopman, C. Lavigne,
   S. Lehtola, F. März, M. Müller, F. Musil, H. Neugebauer, J. Pisarek,
   C. Plett, P. Pracht, F. Pultar, J. Seibert, P. Shushkov, S. Spicher,
   M. Stahn, M. Steiner, T. Strunk, J. Stückrath, T. Rose, and J. Unsleber
   
 * started run on 2026/08/28 at 19:10:44.866     
   ID    Z sym.   atoms
    1    6 C      1-24
    2    1 H      25-74

           -------------------------------------------------
          |                Calculation Setup                |
           -------------------------------------------------

          program call               : xtb in.xyz --gfn 2 --opt --norestart
          hostname                   : 756d39058c4f
          coordinate file            : in.xyz
          random seed                :            2014212984


           -------------------------------------------------
          |                 G F N 2 - x T B                 |
           -------------------------------------------------

        Reference                      10.1021/acs.jctc.8b01176
      * Hamiltonian:
        H0-scaling (s, p, d)           1.850000    2.230000    2.230000
        zeta-weighting                 0.500000
      * Dispersion:
        s8                             2.700000
        a1                             0.520000
        a2                             5.000000
        s9                             5.000000
      * Repulsion:
        kExp                           1.500000    1.000000
        rExp                           1.000000
      * Coulomb:
        alpha                          2.000000
        third order                    shell-resolved
        anisotropic                    true
        a3                             3.000000
        a5                             4.000000
        cn-shift                       1.200000
        cn-exp                         4.000000
        max-rad                        5.000000


          ...................................................
          :                      SETUP                      :
          :.................................................:
          :  # basis functions                 146          :
          :  # atomic orbitals                 146          :
          :  # shells                           98          :
          :  # electrons                       146          :
          :  max. iterations                   250          :
          :  Hamiltonian                  GFN2-xTB          :
          :  restarted?                      false          :
          :  GBSA solvation                  false          :
          :  PC potential                    false          :
          :  electronic temp.          300.0000000     K    :
          :  accuracy                    1.0000000          :
          :  -> integral cutoff          0.2500000E+02      :
          :  -> integral neglect         0.1000000E-07      :
          :  -> SCF convergence          0.1000000E-05 Eh   :
          :  -> wf. convergence          0.1000000E-03 e    :
          :  Broyden damping             0.4000000          :
          :  net charge                          0          :
          :  unpaired electrons                  0          :
          ...................................................

 iter      E             dE          RMSdq      gap      omega  full diag
   1    -77.8668812 -0.778669E+02  0.258E+00   11.58       0.0  T
   2    -78.0600423 -0.193161E+00  0.141E+00   11.65       1.0  T
   3    -78.0629234 -0.288117E-02  0.731E-01   11.68       1.0  T
   4    -78.0634656 -0.542163E-03  0.807E-02   11.71       1.0  T
   5    -78.0634706 -0.496498E-05  0.362E-02   11.71       1.0  T
   6    -78.0634752 -0.467990E-05  0.182E-03   11.70       6.4  T
   7    -78.0634753 -0.709046E-07  0.657E-04   11.70      17.7  T
   8    -78.0634753 -0.231303E-08  0.324E-04   11.70      35.9  T

   *** convergence criteria satisfied after 8 iterations ***

         #    Occupation            Energy/Eh            Energy/eV
      -------------------------------------------------------------
         1        2.0000           -0.6227978             -16.9472
       ...           ...                  ...                  ...
        67        2.0000           -0.4171798             -11.3520
        68        2.0000           -0.4169186             -11.3449
        69        2.0000           -0.4168730             -11.3437
        70        2.0000           -0.4165001             -11.3335
        71        2.0000           -0.4164301             -11.3316
        72        2.0000           -0.4093793             -11.1398
        73        2.0000           -0.4015943             -10.9279 (HOMO)
        74                          0.0285359               0.7765 (LUMO)
        75                          0.0424885               1.1562
        76                          0.0638956               1.7387
        77                          0.0903845               2.4595
        78                          0.0904894               2.4623
       ...                                ...                  ...
       146                          0.3203611               8.7175
      -------------------------------------------------------------
                  HL-Gap            0.4301303 Eh           11.7044 eV
             Fermi-level           -0.1865292 Eh           -5.0757 eV

 SCC (total)                   0 d,  0 h,  0 min,  0.165 sec
 SCC setup                      ...        0 min,  0.000 sec (  0.143%)
 Dispersion                     ...        0 min,  0.001 sec (  0.368%)
 classical contributions        ...        0 min,  0.000 sec (  0.078%)
 integral evaluation            ...        0 min,  0.006 sec (  3.826%)
 iterations                     ...        0 min,  0.111 sec ( 67.429%)
 molecular gradient             ...        0 min,  0.029 sec ( 17.830%)
 printout                       ...        0 min,  0.017 sec ( 10.318%)

         :::::::::::::::::::::::::::::::::::::::::::::::::::::
         ::                     SUMMARY                     ::
         :::::::::::::::::::::::::::::::::::::::::::::::::::::
         :: total energy             -76.951564847297 Eh    ::
         :: gradient norm              0.026110903988 Eh/a0 ::
         :: HOMO-LUMO gap             11.704440381947 eV    ::
         ::.................................................::
         :: SCC energy               -78.064270334589 Eh    ::
         :: -> isotropic ES            0.011825488689 Eh    ::
         :: -> anisotropic ES          0.025168048056 Eh    ::
         :: -> anisotropic XC          0.047496738293 Eh    ::
         :: -> dispersion             -0.050472272161 Eh    ::
         :: repulsion energy           1.112705487292 Eh    ::
         :: add. restraining           0.000000000000 Eh    ::
         :: total charge               0.000000000000 e     ::
         :::::::::::::::::::::::::::::::::::::::::::::::::::::

      ----------------------------------------------------------- 
     |                   =====================                   |
     |                        A N C O P T                        |
     |                   =====================                   |
     |               Approximate Normal Coordinate               |
     |                Rational Function Optimizer                |
      ----------------------------------------------------------- 

          ...................................................
          :                      SETUP                      :
          :.................................................:
          :   optimization level            normal          :
          :   max. optcycles                   222          :
          :   ANC micro-cycles                  20          :
          :   degrees of freedom               216          :
          :.................................................:
          :   RF solver                   davidson          :
          :   write xtbopt.log                true          :
          :   linear?                        false          :
          :   energy convergence         0.5000000E-05 Eh   :
          :   grad. convergence          0.1000000E-02 Eh/α :
          :   maximum RF displ.          1.0000000          :
          :   Hlow (freq-cutoff)         0.1000000E-01      :
          :   Hmax (freq-cutoff)         5.0000000          :
          :   S6 in model hess.         20.0000000          :
          ...................................................

generating ANC from exact Hessian ...
Using Lindh-Hessian (1995)
 Shifting diagonal of input Hessian by    9.9710767275371422E-003
 Lowest  eigenvalues of input Hessian
    0.000000    0.000000    0.000000    0.000000    0.000000    0.000000
    0.010000    0.010007    0.010099    0.010142    0.010344    0.010503
    0.010820    0.010980    0.011084    0.011232    0.011334    0.011572
 Highest eigenvalues
    1.250201    1.267685    1.282399    1.293633    1.301259    1.305554


........................................................................
.............................. CYCLE    1 ..............................
........................................................................

 iter      E             dE          RMSdq      gap      omega  full diag
   1    -78.0634753 -0.780635E+02  0.568E-05   11.70       0.0  T
   2    -78.0634753 -0.200799E-10  0.314E-05   11.70     370.5  T
   3    -78.0634753 -0.230216E-11  0.103E-05   11.70    1128.7  T
     SCC iter.                  ...        0 min,  0.050 sec
     gradient                   ...        0 min,  0.047 sec
 * total energy  :   -76.9515648 Eh     change       -0.4176286E-09 Eh
   gradient norm :     0.0261070 Eh/α   predicted     0.0000000E+00 (-100.00%)
   displ. norm   :     0.1517944 α      lambda       -0.2756902E-02
   maximum displ.:     0.0887690 α      in ANC's #101, #9, #144, ...

........................................................................
.............................. CYCLE    2 ..............................
........................................................................

 iter      E             dE          RMSdq      gap      omega  full diag
   1    -78.0953668 -0.780954E+02  0.808E-02   11.73       0.0  T
   2    -78.0953744 -0.764882E-05  0.467E-02   11.73       1.0  T
   3    -78.0953754 -0.101499E-05  0.340E-03   11.73       3.4  T
   4    -78.0953755 -0.428211E-07  0.150E-03   11.73       7.8  T
   5    -78.0953755  0.202689E-09  0.461E-04   11.73      25.2  T
   6    -78.0953755 -0.165470E-08  0.472E-05   11.73     246.3  T
     SCC iter.                  ...        0 min,  0.084 sec
     gradient                   ...        0 min,  0.048 sec
 * total energy  :   -76.9530449 Eh     change       -0.1480068E-02 Eh
   gradient norm :     0.0067274 Eh/α   predicted    -0.1410215E-02 (  -4.72%)
   displ. norm   :     0.0498118 α      lambda       -0.7863197E-04
   maximum displ.:     0.0446414 α      in ANC's #9, #10, #101, ...

........................................................................
.............................. CYCLE    3 ..............................
........................................................................

 iter      E             dE          RMSdq      gap      omega  full diag
   1    -78.0995559 -0.780996E+02  0.933E-03   11.71       0.0  T
   2    -78.0995565 -0.604210E-06  0.520E-03   11.71       2.2  T
   3    -78.0995565 -0.118782E-07  0.142E-03   11.71       8.2  T
   4    -78.0995565 -0.255089E-08  0.181E-04   11.71      64.2  T
   5    -78.0995565 -0.115193E-09  0.102E-04   11.71     113.6  T
     SCC iter.                  ...        0 min,  0.122 sec
     gradient                   ...        0 min,  0.041 sec
 * total energy  :   -76.9530992 Eh     change       -0.5424917E-04 Eh
   gradient norm :     0.0025228 Eh/α   predicted    -0.3985278E-04 ( -26.54%)
   displ. norm   :     0.0594884 α      lambda       -0.3503880E-04
   maximum displ.:     0.0548388 α      in ANC's #9, #10, #19, ...

........................................................................
.............................. CYCLE    4 ..............................
........................................................................

 iter      E             dE          RMSdq      gap      omega  full diag
   1    -78.1005866 -0.781006E+02  0.546E-03   11.69       0.0  T
   2    -78.1005868 -0.191696E-06  0.321E-03   11.69       3.6  T
   3    -78.1005868 -0.204972E-08  0.805E-04   11.69      14.4  T
   4    -78.1005868 -0.993595E-09  0.816E-05   11.69     142.4  T
     SCC iter.                  ...        0 min,  0.046 sec
     gradient                   ...        0 min,  0.027 sec
 * total energy  :   -76.9531242 Eh     change       -0.2504869E-04 Eh
   gradient norm :     0.0011334 Eh/α   predicted    -0.1767425E-04 ( -29.44%)
   displ. norm   :     0.0660223 α      lambda       -0.1447090E-04
   maximum displ.:     0.0590781 α      in ANC's #9, #10, #19, ...

........................................................................
.............................. CYCLE    5 ..............................
........................................................................

 iter      E             dE          RMSdq      gap      omega  full diag
   1    -78.0994714 -0.780995E+02  0.455E-03   11.67       0.0  T
   2    -78.0994714 -0.835912E-08  0.273E-03   11.67       4.3  T
   3    -78.0994714 -0.127206E-08  0.153E-04   11.67      75.8  T
   4    -78.0994714 -0.414957E-09  0.762E-05   11.67     152.5  T
     SCC iter.                  ...        0 min,  0.068 sec
     gradient                   ...        0 min,  0.037 sec
 * total energy  :   -76.9531410 Eh     change       -0.1677867E-04 Eh
   gradient norm :     0.0017925 Eh/α   predicted    -0.7328031E-05 ( -56.33%)
   displ. norm   :     0.0459865 α      lambda       -0.8534580E-05
   maximum displ.:     0.0396174 α      in ANC's #9, #10, #19, ...

........................................................................
.............................. CYCLE    6 ..............................
........................................................................

 iter      E             dE          RMSdq      gap      omega  full diag
   1    -78.0983216 -0.780983E+02  0.435E-03   11.66       0.0  T
   2    -78.0983216 -0.315575E-07  0.247E-03   11.66       4.7  T
   3    -78.0983216 -0.469967E-09  0.289E-04   11.66      40.3  T
   4    -78.0983216 -0.277410E-09  0.416E-05   11.66     279.2  T
     SCC iter.                  ...        0 min,  0.048 sec
     gradient                   ...        0 min,  0.031 sec
 * total energy  :   -76.9531510 Eh     change       -0.1001911E-04 Eh
   gradient norm :     0.0006308 Eh/α   predicted    -0.4272017E-05 ( -57.36%)
   displ. norm   :     0.0367383 α      lambda       -0.3861572E-05
   maximum displ.:     0.0315260 α      in ANC's #9, #10, #32, ...

........................................................................
.............................. CYCLE    7 ..............................
........................................................................

 iter      E             dE          RMSdq      gap      omega  full diag
   1    -78.0978889 -0.780979E+02  0.341E-03   11.66       0.0  T
   2    -78.0978889 -0.683860E-08  0.198E-03   11.66       5.9  T
   3    -78.0978889 -0.264691E-09  0.114E-04   11.66     102.1  T
   4    -78.0978889 -0.185494E-09  0.297E-05   11.66     391.6  T
     SCC iter.                  ...        0 min,  0.062 sec
     gradient                   ...        0 min,  0.057 sec
 * total energy  :   -76.9531554 Eh     change       -0.4348195E-05 Eh
   gradient norm :     0.0001314 Eh/α   predicted    -0.1933877E-05 ( -55.52%)
   displ. norm   :     0.0213176 α      lambda       -0.1224883E-05
   maximum displ.:     0.0188874 α      in ANC's #9, #10, #19, ...

   *** GEOMETRY OPTIMIZATION CONVERGED AFTER 7 ITERATIONS ***

------------------------------------------------------------------------
 total energy gain   :        -0.0015905 Eh       -0.9981 kcal/mol
 total RMSD          :         0.0412814 a0        0.0218 Å
 total power (kW/mol):        -0.5965556 (step)   -4.4983 (real)
------------------------------------------------------------------------

 ANCopt (total)                0 d,  0 h,  0 min,  0.928 sec
 optimizer setup                ...        0 min,  0.009 sec (  0.953%)
 model hessian                  ...        0 min,  0.020 sec (  2.169%)
 ANC generation                 ...        0 min,  0.034 sec (  3.659%)
 coordinate transformation      ...        0 min,  0.002 sec (  0.183%)
 single point calculation       ...        0 min,  0.855 sec ( 92.136%)
 optimization log               ...        0 min,  0.001 sec (  0.154%)
 hessian update                 ...        0 min,  0.001 sec (  0.078%)
 rational function              ...        0 min,  0.002 sec (  0.260%)

================
 final structure:
================
74
 xtb: 6.7.1 (unknown)
C            0.71870529740460       -0.03941643791019       -0.11038677142103
C            2.24215629658768       -0.02136857767739       -0.09201221657597
C            2.78593616514493        0.97420219561483        0.92961311736483
C            4.31195800775129        0.99892392861190        0.95508045347159
C            4.85245543243919        1.99514691299042        1.97770095131515
C            6.37843346425916        2.02043993562946        2.00389385292852
C            6.91872156349212        3.01635879471644        3.02672633628791
C            8.44465946037568        3.04129502267067        3.05202104575216
C            8.98601490984771        4.03665830959920        4.07470276506888
C           10.51195273428901        4.06090084610379        4.09849546649140
C           11.05448786657923        5.05583440313504        5.12089972686039
C           12.58043861560211        5.07947723185743        5.14369810518677
C           13.12348069086944        6.07422015040935        6.16599280679623
C           14.64943140573601        6.09782476990072        6.18882959271525
C           15.19196501140192        7.09264338720427        7.21134656735167
C           16.71790258692720        7.11700406171388        7.23502800446918
C           17.25925530283007        8.11202211780500        8.25804730108127
C           18.78519252564210        8.13764104597428        8.28268326962716
C           19.32547713826224        9.13280070865820        9.30625658795727
C           20.85145401253457        9.15935340699762        9.33123105521728
C           21.39194780728835       10.15441062575531       10.35498795588148
C           22.91796819334809       10.18054373939968       10.37908943254309
C           23.46174492834551       11.17472562579195       11.40206813349845
C           24.98519450604631       11.19414654020635       11.41911399889956
H            0.35165602736212       -0.75394231853920       -0.84357338909478
H            0.32899319794851        0.94407423815241       -0.36439934014519
H            0.32911790883122       -0.31878647572601        0.86625372799406
H            2.61420098835536        0.24185684228856       -1.08493220154295
H            2.61431009896960       -1.02073148360847        0.14541404627558
H            2.41298134043308        0.71101865361570        1.92244671938686
H            2.41304724708959        1.97351860847142        0.69212911009935
H            4.68564232950864        1.26228863781377       -0.03744444629883
H            4.68555204512505       -0.00016102169365        1.19249307821493
H            4.47910869711356        1.73188337725808        2.97031278343826
H            4.47928960912065        2.99434269044853        1.74036647631009
H            6.75214929006162        2.28410878833312        1.01154732494539
H            6.75197097393496        1.02138411163818        2.24115753098226
H            6.54564526873534        2.75271633516029        4.01930851588885
H            6.54540191963556        4.01556857981408        2.78981894483372
H            8.81770075215010        3.30511961936390        2.05947329790140
H            8.81798392443031        2.04202559926998        3.28867055273961
H            8.61368497748539        3.77277933116865        5.06749776602329
H            8.61279593019338        5.03605249840320        3.83843333325320
H           10.88413682308783        4.32478283588756        3.10563982679659
H           10.88506405823268        3.06141251662498        4.33456137512140
H           10.68270520545335        4.79195181823279        6.11390197387310
H           10.68149427160054        6.05541042604307        4.88503153586667
H           12.95214895883432        5.34335635329980        4.15066482442004
H           12.95336867204730        4.07985210204226        5.37947052985151
H           12.75174034814989        5.81035820006580        7.15901950530890
H           12.75058014225613        7.07385213429737        5.93020316664919
H           15.02124516875182        6.36179259255812        5.19586162733102
H           15.02239482099362        5.09821730348768        6.42461219546861
H           14.81986911729545        6.82858439873911        8.20418818528870
H           14.81876389017359        8.09213992480928        6.97545725412072
H           17.09012456440688        7.38129706687677        6.24230243350868
H           17.09123140481918        6.11755310730975        7.47088266086655
H           16.88675935003793        7.84746286636884        9.25060414917372
H           16.88538345718698        9.11126039529693        8.02213092826238
H           19.15768989613557        8.40244234012005        7.29019194239924
H           19.15909338418910        7.13837448590200        8.51843093959510
H           18.95279202130154        8.86763415226408       10.29859164480512
H           18.95090651264293       10.13182400390727        9.07048931123138
H           21.22375204084943        9.42450960647945        8.33872920426748
H           21.22567087189326        8.16010251092202        9.56667156064644
H           21.01943471803968        9.88904720142993       11.34742097989899
H           21.01718068574513       11.15352928457946       10.11957513780515
H           23.28975418855437       10.44592764407478        9.38640337574622
H           23.29202765410586        9.18114347868535       10.61437053799949
H           23.09083615377164       10.90931237280762       12.39483082628852
H           23.08845403724836       12.17418236390900       11.16683267160701
H           25.37603849155664       10.21053649568228       11.67091606379745
H           25.35224128913897       11.90762097649308       12.15332508225750
H           25.37365135201149       11.47572368401281       10.44265717977350

 Bond Distances (Angstroems)
 ---------------------------
C1-C2=1.5237         C1-H25=1.0876        C1-H26=1.0880        C1-H27=1.0880        C2-C1=1.5237         C2-C3=1.5266         
C2-H28=1.0925        C2-H29=1.0925        C3-C2=1.5266         C3-C4=1.5264         C3-H30=1.0927        C3-H31=1.0927        
C4-C3=1.5264         C4-C5=1.5265         C4-H32=1.0928        C4-H33=1.0928        C5-C4=1.5265         C5-C6=1.5264         
C5-H34=1.0927        C5-H35=1.0927        C6-C5=1.5264         C6-C7=1.5264         C6-H36=1.0927        C6-H37=1.0927        
C7-C6=1.5264         C7-C8=1.5264         C7-H38=1.0927        C7-H39=1.0927        C8-C7=1.5264         C8-C9=1.5263         
C8-H40=1.0927        C8-H41=1.0927        C9-C8=1.5263         C9-C10=1.5263        C9-H42=1.0927        C9-H43=1.0927        
C10-C9=1.5263        C10-C11=1.5263       C10-H44=1.0927       C10-H45=1.0927       C11-C10=1.5263       C11-C12=1.5263       
C11-H46=1.0927       C11-H47=1.0927       C12-C11=1.5263       C12-C13=1.5263       C12-H48=1.0927       C12-H49=1.0927       
C13-C12=1.5263       C13-C14=1.5263       C13-H50=1.0927       C13-H51=1.0927       C14-C13=1.5263       C14-C15=1.5263       
C14-H52=1.0927       C14-H53=1.0927       C15-C14=1.5263       C15-C16=1.5263       C15-H54=1.0927       C15-H55=1.0927       
C16-C15=1.5263       C16-C17=1.5263       C16-H56=1.0927       C16-H57=1.0927       C17-C16=1.5263       C17-C18=1.5264       
C17-H58=1.0927       C17-H59=1.0927       C18-C17=1.5264       C18-C19=1.5264       C18-H60=1.0927       C18-H61=1.0927       
C19-C18=1.5264       C19-C20=1.5264       C19-H62=1.0927       C19-H63=1.0927       C20-C19=1.5264       C20-C21=1.5265       
C20-H64=1.0927       C20-H65=1.0927       C21-C20=1.5265       C21-C22=1.5264       C21-H66=1.0928       C21-H67=1.0928       
C22-C21=1.5264       C22-C23=1.5266       C22-H68=1.0927       C22-H69=1.0927       C23-C22=1.5266       C23-C24=1.5237       
C23-H70=1.0925       C23-H71=1.0925       C24-C23=1.5237       C24-H72=1.0880       C24-H73=1.0876       C24-H74=1.0880       
H25-C1=1.0876        H26-C1=1.0880        H27-C1=1.0880        H28-C2=1.0925        H29-C2=1.0925        H30-C3=1.0927        
H31-C3=1.0927        H32-C4=1.0928        H33-C4=1.0928        H34-C5=1.0927        H35-C5=1.0927        H36-C6=1.0927        
H37-C6=1.0927        H38-C7=1.0927        H39-C7=1.0927        H40-C8=1.0927        H41-C8=1.0927        H42-C9=1.0927        
H43-C9=1.0927        H44-C10=1.0927       H45-C10=1.0927       H46-C11=1.0927       H47-C11=1.0927       H48-C12=1.0927       
H49-C12=1.0927       H50-C13=1.0927       H51-C13=1.0927       H52-C14=1.0927       H53-C14=1.0927       H54-C15=1.0927       
H55-C15=1.0927       H56-C16=1.0927       H57-C16=1.0927       H58-C17=1.0927       H59-C17=1.0927       H60-C18=1.0927       
H61-C18=1.0927       H62-C19=1.0927       H63-C19=1.0927       H64-C20=1.0927       H65-C20=1.0927       H66-C21=1.0928       
H67-C21=1.0928       H68-C22=1.0927       H69-C22=1.0927       H70-C23=1.0925       H71-C23=1.0925       H72-C24=1.0880       
H73-C24=1.0876       H74-C24=1.0880       
 C  H  Rav=1.0921 sigma=0.0016  Rmin=1.0876  Rmax=1.0928    50
 C  C  Rav=1.5262 sigma=0.0008  Rmin=1.5237  Rmax=1.5266    23

 selected bond angles (degree)
 --------------------
H25-C1-C2=110.69               H26-C1-C2=110.50               H26-C1-H25=108.40              H27-C1-C2=110.50               
H27-C1-H25=108.40              H27-C1-H26=108.27              C3-C2-C1=111.84                H28-C2-C1=109.41               
H28-C2-C3=109.26               H29-C2-C1=109.41               H29-C2-C3=109.25               H29-C2-H28=107.57              
C4-C3-C2=112.20                H30-C3-C2=109.23               H30-C3-C4=109.27               H31-C3-C2=109.23               
H31-C3-C4=109.27               H31-C3-H30=107.53              C5-C4-C3=112.07                H32-C4-C3=109.31               
H32-C4-C5=109.27               H33-C4-C3=109.31               H33-C4-C5=109.27               H33-C4-H32=107.50              
C6-C5-C4=112.10                H34-C5-C4=109.29               H34-C5-C6=109.27               H35-C5-C4=109.29               
H35-C5-C6=109.27               H35-C5-H34=107.51              C7-C6-C5=112.10                H36-C6-C5=109.29               
H36-C6-C7=109.27               H37-C6-C5=109.29               H37-C6-C7=109.27               H37-C6-H36=107.51              
C8-C7-C6=112.06                H38-C7-C6=109.29               H38-C7-C8=109.28               H39-C7-C6=109.30               
H39-C7-C8=109.28               H39-C7-H38=107.51              C9-C8-C7=112.11                H40-C8-C7=109.28               
H40-C8-C9=109.27               H41-C8-C7=109.28               H41-C8-C9=109.27               H41-C8-H40=107.51              
C10-C9-C8=112.05               H42-C9-C8=109.30               H42-C9-C10=109.29              H43-C9-C8=109.30               
H43-C9-C10=109.29              H43-C9-H42=107.52              C11-C10-C9=112.10              H44-C10-C9=109.28              
H44-C10-C11=109.28             H45-C10-C9=109.28              H45-C10-C11=109.28             H45-C10-H44=107.51             

 selected dihedral angles (degree)
 ---------------------------------
C3-C2-C1-H25=180.00           C3-C2-C1-H26= 59.91           C3-C2-C1-H27=300.10           H28-C2-C1-H25= 58.81          
H28-C2-C1-H26=298.71          H28-C2-C1-H27=178.91          H29-C2-C1-H25=301.19          H29-C2-C1-H26=181.10          
H29-C2-C1-H27= 61.29          C4-C3-C2-C1=179.99            C4-C3-C2-H28=301.28           C4-C3-C2-H29= 58.71           
H30-C3-C2-C1= 58.67           H30-C3-C2-H28=179.96          H30-C3-C2-H29=297.39          H31-C3-C2-C1=301.31           
H31-C3-C2-H28= 62.60          H31-C3-C2-H29=180.03          C5-C4-C3-C2=180.01            C5-C4-C3-H30=301.31           
C5-C4-C3-H31= 58.71           H32-C4-C3-C2= 58.71           H32-C4-C3-H30=180.01          H32-C4-C3-H31=297.42          
H33-C4-C3-C2=301.30           H33-C4-C3-H30= 62.60          H33-C4-C3-H31=180.00          C6-C5-C4-C3=180.00            
C6-C5-C4-H32=301.31           C6-C5-C4-H33= 58.68           H34-C5-C4-C3= 58.70           H34-C5-C4-H32=180.01          
H34-C5-C4-H33=297.39          H35-C5-C4-C3=301.29           H35-C5-C4-H32= 62.61          H35-C5-C4-H33=179.98          
C7-C6-C5-C4=180.01            C7-C6-C5-H34=301.32           C7-C6-C5-H35= 58.70           H36-C6-C5-C4= 58.72           
H36-C6-C5-H34=180.03          H36-C6-C5-H35=297.41          H37-C6-C5-C4=301.31           H37-C6-C5-H34= 62.62          
H37-C6-C5-H35=180.00          C8-C7-C6-C5=180.02            C8-C7-C6-H36=301.32           C8-C7-C6-H37= 58.71           
H38-C7-C6-C5= 58.72           H38-C7-C6-H36=180.03          H38-C7-C6-H37=297.41          H39-C7-C6-C5=301.31           
H39-C7-C6-H36= 62.62          H39-C7-C6-H37=180.00          C9-C8-C7-C6=180.01            C9-C8-C7-H38=301.31           
C9-C8-C7-H39= 58.71           H40-C8-C7-C6= 58.71           H40-C8-C7-H38=180.01          H40-C8-C7-H39=297.41          
H41-C8-C7-C6=301.32           H41-C8-C7-H38= 62.62          H41-C8-C7-H39=180.01          C10-C9-C8-C7=180.02           
C10-C9-C8-H40=301.33          C10-C9-C8-H41= 58.71          H42-C9-C8-C7= 58.73           H42-C9-C8-H40=180.04          
H42-C9-C8-H41=297.42          H43-C9-C8-C7=301.31           H43-C9-C8-H40= 62.62          H43-C9-C8-H41=180.01          
C11-C10-C9-C8=180.00          C11-C10-C9-H42=301.30         C11-C10-C9-H43= 58.71         H44-C10-C9-C8= 58.70          
H44-C10-C9-H42=180.00         H44-C10-C9-H43=297.41         H45-C10-C9-C8=301.31          H45-C10-C9-H42= 62.60         
H45-C10-C9-H43=180.01         
           -------------------------------------------------
          |                Final Singlepoint                |
           -------------------------------------------------

          ...................................................
          :                      SETUP                      :
          :.................................................:
          :  # basis functions                 146          :
          :  # atomic orbitals                 146          :
          :  # shells                           98          :
          :  # electrons                       146          :
          :  max. iterations                   250          :
          :  Hamiltonian                  GFN2-xTB          :
          :  restarted?                      false          :
          :  GBSA solvation                  false          :
          :  PC potential                    false          :
          :  electronic temp.          300.0000000     K    :
          :  accuracy                    1.0000000          :
          :  -> integral cutoff          0.2500000E+02      :
          :  -> integral neglect         0.1000000E-07      :
          :  -> SCF convergence          0.1000000E-05 Eh   :
          :  -> wf. convergence          0.1000000E-03 e    :
          :  Broyden damping             0.4000000          :
          :  net charge                          0          :
          :  unpaired electrons                  0          :
          ...................................................

 iter      E             dE          RMSdq      gap      omega  full diag
   1    -78.0978889 -0.780979E+02  0.163E-05   11.66       0.0  T
   2    -78.0978889 -0.284217E-12  0.100E-05   11.66    1156.9  T
   3    -78.0978889 -0.184741E-12  0.129E-06   11.66    8991.9  T

   *** convergence criteria satisfied after 3 iterations ***

         #    Occupation            Energy/Eh            Energy/eV
      -------------------------------------------------------------
         1        2.0000           -0.6236389             -16.9701
       ...           ...                  ...                  ...
        67        2.0000           -0.4168181             -11.3422
        68        2.0000           -0.4166434             -11.3374
        69        2.0000           -0.4164935             -11.3334
        70        2.0000           -0.4162167             -11.3258
        71        2.0000           -0.4162111             -11.3257
        72        2.0000           -0.4118852             -11.2080
        73        2.0000           -0.4043043             -11.0017 (HOMO)
        74                          0.0240360               0.6541 (LUMO)
        75                          0.0379504               1.0327
        76                          0.0595846               1.6214
        77                          0.0864634               2.3528
        78                          0.0977740               2.6606
       ...                                ...                  ...
       146                          0.3288260               8.9478
      -------------------------------------------------------------
                  HL-Gap            0.4283403 Eh           11.6557 eV
             Fermi-level           -0.1901342 Eh           -5.1738 eV

 SCC (total)                   0 d,  0 h,  0 min,  0.115 sec
 SCC setup                      ...        0 min,  0.000 sec (  0.227%)
 Dispersion                     ...        0 min,  0.000 sec (  0.370%)
 classical contributions        ...        0 min,  0.000 sec (  0.108%)
 integral evaluation            ...        0 min,  0.007 sec (  6.052%)
 iterations                     ...        0 min,  0.046 sec ( 39.565%)
 molecular gradient             ...        0 min,  0.061 sec ( 52.536%)
 printout                       ...        0 min,  0.001 sec (  1.130%)

         :::::::::::::::::::::::::::::::::::::::::::::::::::::
         ::                     SUMMARY                     ::
         :::::::::::::::::::::::::::::::::::::::::::::::::::::
         :: total energy             -76.953155359527 Eh    ::
         :: gradient norm              0.000131335855 Eh/a0 ::
         :: HOMO-LUMO gap             11.655733603091 eV    ::
         ::.................................................::
         :: SCC energy               -78.098694720195 Eh    ::
         :: -> isotropic ES            0.012120423381 Eh    ::
         :: -> anisotropic ES          0.023878839489 Eh    ::
         :: -> anisotropic XC          0.045850984345 Eh    ::
         :: -> dispersion             -0.050417626246 Eh    ::
         :: repulsion energy           1.145539360669 Eh    ::
         :: add. restraining           0.000000000000 Eh    ::
         :: total charge              -0.000000000000 e     ::
         :::::::::::::::::::::::::::::::::::::::::::::::::::::

           -------------------------------------------------
          |                Property Printout                |
           -------------------------------------------------

    * Orbital Energies and Occupations

         #    Occupation            Energy/Eh            Energy/eV
      -------------------------------------------------------------
         1        2.0000           -0.6236389             -16.9701
       ...           ...                  ...                  ...
        61        2.0000           -0.4261302             -11.5956
        62        2.0000           -0.4255671             -11.5803
        63        2.0000           -0.4232966             -11.5185
        64        2.0000           -0.4230448             -11.5116
        65        2.0000           -0.4200900             -11.4312
        66        2.0000           -0.4179766             -11.3737
        67        2.0000           -0.4168181             -11.3422
        68        2.0000           -0.4166434             -11.3374
        69        2.0000           -0.4164935             -11.3334
        70        2.0000           -0.4162167             -11.3258
        71        2.0000           -0.4162111             -11.3257
        72        2.0000           -0.4118852             -11.2080
        73        2.0000           -0.4043043             -11.0017 (HOMO)
        74                          0.0240360               0.6541 (LUMO)
        75                          0.0379504               1.0327
        76                          0.0595846               1.6214
        77                          0.0864634               2.3528
        78                          0.0977740               2.6606
        79                          0.1020417               2.7767
        80                          0.1089769               2.9654
        81                          0.1116168               3.0372
        82                          0.1116340               3.0377
        83                          0.1136629               3.0929
        84                          0.1137224               3.0945
       ...                                ...                  ...
       146                          0.3288260               8.9478
      -------------------------------------------------------------
                  HL-Gap            0.4283403 Eh           11.6557 eV
             Fermi-level           -0.1901342 Eh           -5.1738 eV

     #   Z          covCN         q      C6AA      α(0)
     1   6          3.752    -0.102    22.510     6.766
     2   6          3.801    -0.053    21.523     6.605
     3   6          3.803    -0.059    21.634     6.622
     4   6          3.803    -0.058    21.623     6.620
     5   6          3.803    -0.058    21.619     6.620
     6   6          3.803    -0.058    21.621     6.620
     7   6          3.803    -0.058    21.621     6.620
     8   6          3.803    -0.058    21.622     6.620
     9   6          3.803    -0.058    21.622     6.620
    10   6          3.803    -0.058    21.622     6.620
    11   6          3.803    -0.058    21.622     6.620
    12   6          3.803    -0.058    21.622     6.620
    13   6          3.803    -0.058    21.622     6.620
    14   6          3.803    -0.058    21.622     6.620
    15   6          3.803    -0.058    21.622     6.620
    16   6          3.803    -0.058    21.622     6.620
    17   6          3.803    -0.058    21.622     6.620
    18   6          3.803    -0.058    21.621     6.620
    19   6          3.803    -0.058    21.621     6.620
    20   6          3.803    -0.058    21.619     6.620
    21   6          3.803    -0.058    21.623     6.620
    22   6          3.803    -0.059    21.634     6.622
    23   6          3.801    -0.053    21.523     6.605
    24   6          3.752    -0.102    22.510     6.766
    25   1          0.925     0.033     2.550     2.497
    26   1          0.925     0.033     2.541     2.493
    27   1          0.925     0.033     2.541     2.493
    28   1          0.924     0.028     2.608     2.526
    29   1          0.924     0.028     2.608     2.526
    30   1          0.924     0.030     2.590     2.517
    31   1          0.924     0.030     2.590     2.517
    32   1          0.924     0.029     2.607     2.525
    33   1          0.924     0.029     2.607     2.525
    34   1          0.924     0.029     2.600     2.521
    35   1          0.924     0.029     2.600     2.522
    36   1          0.924     0.029     2.600     2.522
    37   1          0.924     0.029     2.600     2.522
    38   1          0.924     0.029     2.599     2.521
    39   1          0.924     0.029     2.599     2.521
    40   1          0.924     0.029     2.599     2.521
    41   1          0.924     0.029     2.599     2.521
    42   1          0.924     0.029     2.598     2.521
    43   1          0.924     0.029     2.598     2.521
    44   1          0.924     0.029     2.598     2.521
    45   1          0.924     0.029     2.598     2.521
    46   1          0.924     0.029     2.598     2.521
    47   1          0.924     0.029     2.598     2.521
    48   1          0.924     0.029     2.598     2.521
    49   1          0.924     0.029     2.598     2.521
    50   1          0.924     0.029     2.598     2.521
    51   1          0.924     0.029     2.598     2.521
    52   1          0.924     0.029     2.598     2.521
    53   1          0.924     0.029     2.598     2.521
    54   1          0.924     0.029     2.598     2.521
    55   1          0.924     0.029     2.598     2.521
    56   1          0.924     0.029     2.598     2.521
    57   1          0.924     0.029     2.598     2.521
    58   1          0.924     0.029     2.599     2.521
    59   1          0.924     0.029     2.599     2.521
    60   1          0.924     0.029     2.599     2.521
    61   1          0.924     0.029     2.599     2.521
    62   1          0.924     0.029     2.600     2.522
    63   1          0.924     0.029     2.600     2.521
    64   1          0.924     0.029     2.600     2.521
    65   1          0.924     0.029     2.600     2.521
    66   1          0.924     0.029     2.607     2.525
    67   1          0.924     0.029     2.607     2.525
    68   1          0.924     0.030     2.590     2.517
    69   1          0.924     0.030     2.590     2.517
    70   1          0.924     0.028     2.608     2.526
    71   1          0.924     0.028     2.608     2.526
    72   1          0.925     0.033     2.541     2.493
    73   1          0.925     0.033     2.550     2.497
    74   1          0.925     0.033     2.541     2.493

 Mol. C6AA /au·bohr⁶  :      36857.229555
 Mol. C8AA /au·bohr⁸  :     774027.322005
 Mol. α(0) /au        :        285.052191


Wiberg/Mayer (AO) data.
largest (>0.10) Wiberg bond orders for each atom

 ---------------------------------------------------------------------------
     #   Z sym  total        # sym  WBO       # sym  WBO       # sym  WBO
 ---------------------------------------------------------------------------
     1   6      3.997 --     2      1.019    26      0.988    27      0.988
                            25      0.988
     2   6      3.998 --     1      1.019     3      1.008    28      0.979
                            29      0.979
     3   6      3.997 --     2      1.008     4      1.007    31      0.977
                            30      0.977
     4   6      3.997 --     3      1.007     5      1.007    32      0.978
                            33      0.978
     5   6      3.997 --     4      1.007     6      1.007    35      0.978
                            34      0.978
     6   6      3.997 --     5      1.007     7      1.007    36      0.977
                            37      0.977
     7   6      3.997 --     8      1.007     6      1.007    38      0.977
                            39      0.977
     8   6      3.997 --     7      1.007     9      1.007    41      0.977
                            40      0.977
     9   6      3.997 --    10      1.007     8      1.007    42      0.977
                            43      0.977
    10   6      3.997 --    11      1.007     9      1.007    45      0.977
                            44      0.977
    11   6      3.997 --    10      1.007    12      1.007    46      0.977
                            47      0.977
    12   6      3.997 --    13      1.007    11      1.007    48      0.977
                            49      0.977
    13   6      3.997 --    12      1.007    14      1.007    51      0.977
                            50      0.977
    14   6      3.997 --    15      1.007    13      1.007    52      0.977
                            53      0.977
    15   6      3.997 --    14      1.007    16      1.007    55      0.977
                            54      0.977
    16   6      3.997 --    15      1.007    17      1.007    56      0.977
                            57      0.977
    17   6      3.997 --    18      1.007    16      1.007    58      0.977
                            59      0.977
    18   6      3.997 --    17      1.007    19      1.007    61      0.977
                            60      0.977
    19   6      3.997 --    20      1.007    18      1.007    62      0.977
                            63      0.977
    20   6      3.997 --    21      1.007    19      1.007    65      0.978
                            64      0.978
    21   6      3.997 --    22      1.007    20      1.007    66      0.978
                            67      0.978
    22   6      3.997 --    23      1.008    21      1.007    69      0.977
                            68      0.977
    23   6      3.998 --    24      1.019    22      1.008    70      0.979
                            71      0.979
    24   6      3.997 --    23      1.019    72      0.988    74      0.988
                            73      0.988
    25   1      0.999 --     1      0.988
    26   1      0.999 --     1      0.988
    27   1      0.999 --     1      0.988
    28   1      0.999 --     2      0.979
    29   1      0.999 --     2      0.979
    30   1      0.999 --     3      0.977
    31   1      0.999 --     3      0.977
    32   1      0.999 --     4      0.978
    33   1      0.999 --     4      0.978
    34   1      0.999 --     5      0.978
    35   1      0.999 --     5      0.978
    36   1      0.999 --     6      0.977
    37   1      0.999 --     6      0.977
    38   1      0.999 --     7      0.977
    39   1      0.999 --     7      0.977
    40   1      0.999 --     8      0.977
    41   1      0.999 --     8      0.977
    42   1      0.999 --     9      0.977
    43   1      0.999 --     9      0.977
    44   1      0.999 --    10      0.977
    45   1      0.999 --    10      0.977
    46   1      0.999 --    11      0.977
    47   1      0.999 --    11      0.977
    48   1      0.999 --    12      0.977
    49   1      0.999 --    12      0.977
    50   1      0.999 --    13      0.977
    51   1      0.999 --    13      0.977
    52   1      0.999 --    14      0.977
    53   1      0.999 --    14      0.977
    54   1      0.999 --    15      0.977
    55   1      0.999 --    15      0.977
    56   1      0.999 --    16      0.977
    57   1      0.999 --    16      0.977
    58   1      0.999 --    17      0.977
    59   1      0.999 --    17      0.977
    60   1      0.999 --    18      0.977
    61   1      0.999 --    18      0.977
    62   1      0.999 --    19      0.977
    63   1      0.999 --    19      0.977
    64   1      0.999 --    20      0.978
    65   1      0.999 --    20      0.978
    66   1      0.999 --    21      0.978
    67   1      0.999 --    21      0.978
    68   1      0.999 --    22      0.977
    69   1      0.999 --    22      0.977
    70   1      0.999 --    23      0.979
    71   1      0.999 --    23      0.979
    72   1      0.999 --    24      0.988
    73   1      0.999 --    24      0.988
    74   1      0.999 --    24      0.988
 ---------------------------------------------------------------------------

Topologies differ in total number of bonds
Writing topology from bond orders to xtbtopo.mol

molecular dipole:
                 x           y           z       tot (Debye)
 q only:       -0.000       0.000      -0.000
   full:       -0.000       0.000      -0.000       0.000
molecular quadrupole (traceless):
                xx          xy          yy          xz          yz          zz
 q only:        1.752       0.668      -0.898       0.683       0.846      -0.853
  q+dip:       -4.727      -2.233       2.493      -2.287      -4.714       2.234
   full:       -1.720      -0.841       0.919      -0.862      -2.131       0.801

           -------------------------------------------------
          |                Geometry Summary                 |
           -------------------------------------------------

      molecular mass/u    :      338.6546991
   center of mass at/Å    :       12.8519567       5.5769111       5.6547941
  moments of inertia/u·Å² :        0.1452911E+03   0.2637196E+05   0.2644209E+05
rotational constants/cm⁻¹ :        0.1160266E+00   0.6392257E-03   0.6375302E-03

 * 73 selected distances

     #   Z          #   Z                                           value/Å
     1   6          2   6                                         1.5236688
     2   6          3   6                                         1.5266226
     3   6          4   6                                         1.5264347
     4   6          5   6                                         1.5265487
     5   6          6   6                                         1.5264125
     6   6          7   6                                         1.5264181
     7   6          8   6                                         1.5263514
     8   6          9   6                                         1.5263329
     9   6         10   6                                         1.5263160
    10   6         11   6                                         1.5262857
    11   6         12   6                                         1.5263043
    12   6         13   6                                         1.5262683
    13   6         14   6                                         1.5263043
    14   6         15   6                                         1.5262857
    15   6         16   6                                         1.5263159
    16   6         17   6                                         1.5263331
    17   6         18   6                                         1.5263512
    18   6         19   6                                         1.5264184
    19   6         20   6                                         1.5264123
    20   6         21   6                                         1.5265487
    21   6         22   6                                         1.5264346
    22   6         23   6                                         1.5266226 (max)
    23   6         24   6                                         1.5236689
     1   6         25   1                                         1.0875823 (min)
     1   6         26   1                                         1.0879577
     1   6         27   1                                         1.0879581
     2   6         28   1                                         1.0925178
     2   6         29   1                                         1.0925182
     3   6         30   1                                         1.0927395
     3   6         31   1                                         1.0927389
     4   6         32   1                                         1.0927520
     4   6         33   1                                         1.0927526
     5   6         34   1                                         1.0926911
     5   6         35   1                                         1.0926906
     6   6         36   1                                         1.0926741
     6   6         37   1                                         1.0926743
     7   6         38   1                                         1.0926632
     7   6         39   1                                         1.0926633
     8   6         40   1                                         1.0926639
     8   6         41   1                                         1.0926636
Note: The following floating-point exceptions are signalling: IEEE_UNDERFLOW_FLAG
normal termination of xtb
     9   6         42   1                                         1.0926591
     9   6         43   1                                         1.0926594
    10   6         44   1                                         1.0926652
    10   6         45   1                                         1.0926648
    11   6         46   1                                         1.0926619
    11   6         47   1                                         1.0926621
    12   6         48   1                                         1.0926647
    12   6         49   1                                         1.0926647
    13   6         50   1                                         1.0926648
    13   6         51   1                                         1.0926646
    14   6         52   1                                         1.0926619
    14   6         53   1                                         1.0926621
    15   6         54   1                                         1.0926652
    15   6         55   1                                         1.0926648
    16   6         56   1                                         1.0926593
    16   6         57   1                                         1.0926593
    17   6         58   1                                         1.0926638
    17   6         59   1                                         1.0926637
    18   6         60   1                                         1.0926634
    18   6         61   1                                         1.0926631
    19   6         62   1                                         1.0926741
    19   6         63   1                                         1.0926743
    20   6         64   1                                         1.0926911
    20   6         65   1                                         1.0926907
    21   6         66   1                                         1.0927522
    21   6         67   1                                         1.0927524
    22   6         68   1                                         1.0927393
    22   6         69   1                                         1.0927391
    23   6         70   1                                         1.0925180
    23   6         71   1                                         1.0925181
    24   6         72   1                                         1.0879578
    24   6         73   1                                         1.0875823
    24   6         74   1                                         1.0879580

 * 2 distinct bonds (by element types)

   Z      Z             #   av. dist./Å        max./Å        min./Å
   1 H    6 C          50     1.0920881     1.0927526     1.0875823
   6 C    6 C          23     1.5261591     1.5266226     1.5236688


optimized geometry written to: xtbopt.xyz


           -------------------------------------------------
          | TOTAL ENERGY              -76.953155359527 Eh   |
          | GRADIENT NORM               0.000131335855 Eh/α |
          | HOMO-LUMO GAP              11.655733603091 eV   |
           -------------------------------------------------

------------------------------------------------------------------------
 * finished run on 2026/08/28 at 19:10:46.116     
------------------------------------------------------------------------
 total:
 * wall-time:     0 d,  0 h,  0 min,  1.249 sec
 *  cpu-time:     0 d,  0 h,  0 min,  1.153 sec
 * ratio c/w:     0.923 speedup
 SCF:
 * wall-time:     0 d,  0 h,  0 min,  0.165 sec
 *  cpu-time:     0 d,  0 h,  0 min,  0.142 sec
 * ratio c/w:     0.861 speedup
 ANC optimizer:
 * wall-time:     0 d,  0 h,  0 min,  1.045 sec
 *  cpu-time:     0 d,  0 h,  0 min,  0.980 sec
 * ratio c/w:     0.938 speedup

