      -----------------------------------------------------------      
     |                   =====================                   |     
     |                           x T B                           |     
     |                   =====================                   |     
     |                         S. Grimme                         |     
     |          Mulliken Center for Theoretical Chemistry        |     
     |                    University of Bonn                     |     
      -----------------------------------------------------------      

   * xtb version 6.7.1 (unknown) compiled by 'root@buildkitsandbox' on 2026-08-28

   xtb is free software: you can redistribute it and/or modify it under
   the terms of the GNU Lesser General Public License as published by
   the Free Software Foundation, either version 3 of the License, or
   (at your option) any later version.
   
   xtb is distributed in the hope that it will be useful,
   but WITHOUT ANY WARRANTY; without even the implied warranty of
   MERCHANTABILITY or FITNESS FOR A PARTICULAR PURPOSE.  See the
   GNU Lesser General Public License for more details.
   
   Cite this work as:
   * C. Bannwarth, E. Caldeweyher, S. Ehlert, A. Hansen, P. Pracht,
     J. Seibert, S. Spicher, S. Grimme, WIREs Comput. Mol. Sci., 2020, 11,
     e01493. DOI: 10.1002/wcms.1493
   
   for GFN2-xTB:
   * C. Bannwarth, S. Ehlert and S. Grimme., J. Chem. Theory Comput., 2019,
     15, 1652-1671. DOI: 10.1021/acs.jctc.8b01176
   for GFN1-xTB:
   * S. Grimme, C. Bannwarth, P. Shushkov, J. Chem. Theory Comput., 2017,
     13, 1989-2009. DOI: 10.1021/acs.jctc.7b00118
   for GFN0-xTB:
   * P. Pracht, E. Caldeweyher, S. Ehlert, S. Grimme, ChemRxiv, 2019, preprint.
     DOI: 10.26434/chemrxiv.8326202.v1
   for GFN-FF:
   * S. Spicher and S. Grimme, Angew. Chem. Int. Ed., 2020, 59, 15665-15673.
     DOI: 10.1002/anie.202004239
   
   for ALPB and GBSA implicit solvation:
   * S. Ehlert, M. Stahn, S. Spicher, S. Grimme, J. Chem. Theory Comput.,
     2021, 17, 4250-4261. DOI: 10.1021/acs.jctc.1c00471
   
   for ddCOSMO and CPCM-X implicit solvation:
   * M. Stahn, S. Ehlert, S. Grimme, J. Phys. Chem. A,
     2023, XX, XXXX-XXXX. DOI: 10.1021/acs.jpca.3c04382
   
   for DFT-D4:
   * E. Caldeweyher, C. Bannwarth and S. Grimme, J. Chem. Phys., 2017,
     147, 034112. DOI: 10.1063/1.4993215
   * E. Caldeweyher, S. Ehlert, A. Hansen, H. Neugebauer, S. Spicher,
     C. Bannwarth and S. Grimme, J. Chem. Phys., 2019, 150, 154122.
     DOI: 10.1063/1.5090222
   * E. Caldeweyher, J.-M. Mewes, S. Ehlert and S. Grimme, Phys. Chem. Chem. Phys.
     2020, 22, 8499-8512. DOI: 10.1039/D0CP00502A
   
   for sTDA-xTB:
   * S. Grimme and C. Bannwarth, J. Chem. Phys., 2016, 145, 054103.
     DOI: 10.1063/1.4959605
   
   in the mass-spec context:
   * V. Asgeirsson, C. Bauer and S. Grimme, Chem. Sci., 2017, 8, 4879.
     DOI: 10.1039/c7sc00601b
   * J. Koopman and S. Grimme, ACS Omega 2019, 4, 12, 15120-15133.
     DOI: 10.1021/acsomega.9b02011
   
   for metadynamics refer to:
   * S. Grimme, J. Chem. Theory Comput., 2019, 155, 2847-2862
     DOI: 10.1021/acs.jctc.9b00143
   
   for SPH calculations refer to:
   * S. Spicher and S. Grimme, J. Chem. Theory Comput., 2021, 17, 1701-1714
     DOI: 10.1021/acs.jctc.0c01306
   
   for ONIOM refer to:
   * C. Plett, A. Katbashev, S. Ehlert, S. Grimme, M. Bursch,
     Phys. Chem. Chem. Phys., 2023, 25, 17860-17868. DOI: 10.1039/D3CP02178E
   
   for DIPRO refer to:
   * J. Kohn, N. Gildemeister, S. Grimme, D. Fazzi, A. Hansen,
     J. Chem. Phys. 159, 144106 (2023). DOI: 10.1063/5.0167484
   
   for PTB refer to:
   * S. Grimme, M. Mueller, A. Hansen, J. Chem. Phys., 2023, 158, 124111.
     DOI: 10.1063/5.0137838
   
   with help from (in alphabetical order)
   P. Atkinson, C. Bannwarth, F. Bohle, G. Brandenburg, E. Caldeweyher,
   M. Checinski, S. Dohm, S. Ehlert, S. Ehrlich, M. Friede, T. Froitzheim,
   I. Gerasimov, C. Hölzer, A. Katbashev, J. Kohn, J. Koopman, C. Lavigne,
   S. Lehtola, F. März, M. Müller, F. Musil, H. Neugebauer, J. Pisarek,
   C. Plett, P. Pracht, F. Pultar, J. Seibert, P. Shushkov, S. Spicher,
   M. Stahn, M. Steiner, T. Strunk, J. Stückrath, T. Rose, and J. Unsleber
   
 * started run on 2026/08/28 at 19:11:54.960     
   ID    Z sym.   atoms
    1    6 C      1, 2
    2    1 H      3-8

           -------------------------------------------------
          |                Calculation Setup                |
           -------------------------------------------------

          program call               : xtb opt.xyz --gfn 2 --hess --norestart
          hostname                   : 756d39058c4f
          coordinate file            : opt.xyz
          random seed                :             722275362


           -------------------------------------------------
          |                 G F N 2 - x T B                 |
           -------------------------------------------------

        Reference                      10.1021/acs.jctc.8b01176
      * Hamiltonian:
        H0-scaling (s, p, d)           1.850000    2.230000    2.230000
        zeta-weighting                 0.500000
      * Dispersion:
        s8                             2.700000
        a1                             0.520000
        a2                             5.000000
        s9                             5.000000
      * Repulsion:
        kExp                           1.500000    1.000000
        rExp                           1.000000
      * Coulomb:
        alpha                          2.000000
        third order                    shell-resolved
        anisotropic                    true
        a3                             3.000000
        a5                             4.000000
        cn-shift                       1.200000
        cn-exp                         4.000000
        max-rad                        5.000000


          ...................................................
          :                      SETUP                      :
          :.................................................:
          :  # basis functions                  14          :
          :  # atomic orbitals                  14          :
          :  # shells                           10          :
          :  # electrons                        14          :
          :  max. iterations                   250          :
          :  Hamiltonian                  GFN2-xTB          :
          :  restarted?                      false          :
          :  GBSA solvation                  false          :
          :  PC potential                    false          :
          :  electronic temp.          300.0000000     K    :
          :  accuracy                    1.0000000          :
          :  -> integral cutoff          0.2500000E+02      :
          :  -> integral neglect         0.1000000E-07      :
          :  -> SCF convergence          0.1000000E-05 Eh   :
          :  -> wf. convergence          0.1000000E-03 e    :
          :  Broyden damping             0.4000000          :
          :  net charge                          0          :
          :  unpaired electrons                  0          :
          ...................................................

 iter      E             dE          RMSdq      gap      omega  full diag
   1     -7.4298413 -0.742984E+01  0.269E+00   15.98       0.0  T
   2     -7.4536440 -0.238027E-01  0.136E+00   15.52       1.0  T
   3     -7.4538688 -0.224866E-03  0.718E-01   15.50       1.0  T
   4     -7.4539351 -0.662520E-04  0.881E-02   15.50       1.0  T
   5     -7.4539351  0.700151E-08  0.360E-03   15.50       9.8  T
   6     -7.4539351 -0.644992E-07  0.107E-03   15.50      33.1  T
   7     -7.4539351 -0.429834E-10  0.147E-04   15.50     239.8  T
   8     -7.4539351 -0.101495E-09  0.353E-06   15.50   10008.9  T

   *** convergence criteria satisfied after 8 iterations ***

         #    Occupation            Energy/Eh            Energy/eV
      -------------------------------------------------------------
         1        2.0000           -0.6047688             -16.4566
         2        2.0000           -0.5631085             -15.3230
         3        2.0000           -0.4954127             -13.4809
         4        2.0000           -0.4954127             -13.4809
         5        2.0000           -0.4610094             -12.5447
         6        2.0000           -0.4353592             -11.8467
         7        2.0000           -0.4353592             -11.8467 (HOMO)
         8                          0.1343373               3.6555 (LUMO)
         9                          0.1677942               4.5659
        10                          0.1677944               4.5659
        11                          0.1748028               4.7566
        12                          0.2018578               5.4928
       ...                                ...                  ...
        14                          0.2818895               7.6706
      -------------------------------------------------------------
                  HL-Gap            0.5696965 Eh           15.5022 eV
             Fermi-level           -0.1505109 Eh           -4.0956 eV

 SCC (total)                   0 d,  0 h,  0 min,  0.012 sec
 SCC setup                      ...        0 min,  0.000 sec (  0.274%)
 Dispersion                     ...        0 min,  0.000 sec (  0.159%)
 classical contributions        ...        0 min,  0.000 sec (  0.026%)
 integral evaluation            ...        0 min,  0.000 sec (  1.156%)
 iterations                     ...        0 min,  0.008 sec ( 66.612%)
 molecular gradient             ...        0 min,  0.000 sec (  2.954%)
 printout                       ...        0 min,  0.003 sec ( 28.749%)

         :::::::::::::::::::::::::::::::::::::::::::::::::::::
         ::                     SUMMARY                     ::
         :::::::::::::::::::::::::::::::::::::::::::::::::::::
         :: total energy              -7.336370572238 Eh    ::
         :: gradient norm              0.000323089820 Eh/a0 ::
         :: HOMO-LUMO gap             15.502230881493 eV    ::
         ::.................................................::
         :: SCC energy                -7.453934978119 Eh    ::
         :: -> isotropic ES            0.002040014259 Eh    ::
         :: -> anisotropic ES          0.003090262069 Eh    ::
         :: -> anisotropic XC          0.005385733987 Eh    ::
         :: -> dispersion             -0.002033880210 Eh    ::
         :: repulsion energy           0.117564405881 Eh    ::
         :: add. restraining           0.000000000000 Eh    ::
         :: total charge               0.000000000000 e     ::
         :::::::::::::::::::::::::::::::::::::::::::::::::::::

           ------------------------------------------------- 
          |                Numerical Hessian                |
           ------------------------------------------------- 
step length          :   0.00500
SCC accuracy         :   0.30000
Hessian scale factor :   1.00000
frozen atoms in %    :   0.00000    0
RMS gradient         :   0.00032
estimated CPU  time      0.00 min
estimated wall time      0.00 min

writing file <hessian>, containing the non-mass-weighted Hessian matrix in atomic units (Eₕ/Bohr²).

 projected vibrational frequencies (cm⁻¹)
eigval :       -0.00    -0.00    -0.00    -0.00     0.00     0.00
eigval :      300.82   860.78   860.79  1068.47  1209.42  1209.43
eigval :     1399.53  1433.66  1507.49  1507.51  1509.10  1509.13
eigval :     3024.44  3024.48  3035.76  3041.50  3041.53  3042.44
           -------------------------------------------------
          |                Property Printout                |
           -------------------------------------------------

    * Orbital Energies and Occupations

         #    Occupation            Energy/Eh            Energy/eV
      -------------------------------------------------------------
         1        2.0000           -0.6047688             -16.4566
         2        2.0000           -0.5631085             -15.3230
         3        2.0000           -0.4954127             -13.4809
         4        2.0000           -0.4954127             -13.4809
         5        2.0000           -0.4610094             -12.5447
         6        2.0000           -0.4353592             -11.8467
         7        2.0000           -0.4353592             -11.8467 (HOMO)
         8                          0.1343373               3.6555 (LUMO)
         9                          0.1677942               4.5659
        10                          0.1677944               4.5659
        11                          0.1748028               4.7566
        12                          0.2018578               5.4928
        13                          0.2818892               7.6706
        14                          0.2818895               7.6706
      -------------------------------------------------------------
                  HL-Gap            0.5696965 Eh           15.5022 eV
             Fermi-level           -0.1505109 Eh           -4.0956 eV

     #   Z          covCN         q      C6AA      α(0)
     1   6          3.750    -0.097    22.415     6.752
     2   6          3.750    -0.097    22.415     6.752
     3   1          0.925     0.032     2.554     2.499
     4   1          0.925     0.032     2.554     2.499
     5   1          0.925     0.032     2.554     2.499
     6   1          0.925     0.032     2.554     2.499
     7   1          0.925     0.032     2.554     2.499
     8   1          0.925     0.032     2.554     2.499

 Mol. C6AA /au·bohr⁶  :        362.033668
 Mol. C8AA /au·bohr⁸  :       7078.361049
 Mol. α(0) /au        :         28.498347


Wiberg/Mayer (AO) data.
largest (>0.10) Wiberg bond orders for each atom

 ---------------------------------------------------------------------------
     #   Z sym  total        # sym  WBO       # sym  WBO       # sym  WBO
 ---------------------------------------------------------------------------
     1   6      3.997 --     2      1.031     3      0.989     5      0.989
                             4      0.989
     2   6      3.997 --     1      1.031     8      0.989     6      0.989
                             7      0.989
     3   1      0.999 --     1      0.989
     4   1      0.999 --     1      0.989
     5   1      0.999 --     1      0.989
     6   1      0.999 --     2      0.989
     7   1      0.999 --     2      0.989
     8   1      0.999 --     2      0.989
 ---------------------------------------------------------------------------

Topologies differ in total number of bonds
Writing topology from bond orders to xtbtopo.mol

molecular dipole:
                 x           y           z       tot (Debye)
 q only:       -0.000       0.000       0.000
   full:       -0.000      -0.000       0.000       0.000
molecular quadrupole (traceless):
                xx          xy          yy          xz          yz          zz
 q only:        0.146       0.000      -0.073       0.000       0.000      -0.073
  q+dip:       -0.626      -0.000       0.313      -0.000       0.000       0.313
   full:       -0.270      -0.000       0.135      -0.000       0.000       0.135

           -------------------------------------------------
          |               Frequency Printout                |
           -------------------------------------------------
 projected vibrational frequencies (cm⁻¹)
eigval :       -0.00    -0.00    -0.00    -0.00     0.00     0.00
eigval :      300.82   860.78   860.79  1068.47  1209.42  1209.43
eigval :     1399.53  1433.66  1507.49  1507.51  1509.10  1509.13
eigval :     3024.44  3024.48  3035.76  3041.50  3041.53  3042.44
 reduced masses (amu)
    1:      1.86    2:      2.30    3:      3.48    4:      1.47    5:      2.76    6:      2.18
    7:      1.01    8:      1.05    9:      1.05   10:      3.56   11:      1.45   12:      1.45
   13:      1.20   14:      1.23   15:      1.04   16:      1.04   17:      1.07   18:      1.07
   19:      1.09   20:      1.09   21:      1.03   22:      1.10   23:      1.10   24:      1.03
 IR intensities (km·mol⁻¹)
    1:      0.00    2:      0.00    3:      0.00    4:      0.00    5:      0.00    6:      0.00
    7:      0.00    8:      9.09    9:      9.17   10:      0.00   11:      0.00   12:      0.00
Refinement of some symmetry elements was terminated before convergence was reached.
Some symmetry elements may remain unidentified.
Molecule has the following symmetry elements: (i) (C3) 3*(C2) (S6) 3*(sigma) 
It seems to be the D3d point group
   13:      0.35   14:      0.00   15:      0.00   16:      0.00   17:      4.03   18:      4.14
   19:      0.00   20:      0.00   21:      0.00   22:     91.37   23:     91.33   24:     50.32
 Raman intensities (Ä⁴*amu⁻¹)
    1:      0.00    2:      0.00    3:      0.00    4:      0.00    5:      0.00    6:      0.00
    7:      0.00    8:      0.00    9:      0.00   10:      0.00   11:      0.00   12:      0.00
   13:      0.00   14:      0.00   15:      0.00   16:      0.00   17:      0.00   18:      0.00
   19:      0.00   20:      0.00   21:      0.00   22:      0.00   23:      0.00   24:      0.00
 output can be read by thermo (or use thermo option).
 writing <g98.out> molden fake output.
 recommended (thermochemical) frequency scaling factor: 1.0
           -------------------------------------------------
          |             Thermodynamic Functions             |
           -------------------------------------------------

d3d symmetry found (for desy threshold:  0.10E+00) used in thermo

          ...................................................
          :                      SETUP                      :
          :.................................................:
          :  # frequencies                          18      :
          :  # imaginary freq.                       0      :
          :  linear?                             false      :
          :  only rotor calc.                    false      :
          :  symmetry                              d3d      :
          :  rotational number                       6      :
          :  scaling factor                  1.0000000      :
          :  rotor cutoff                   50.0000000 cm⁻¹ :
          :  imag. cutoff                  -20.0000000 cm⁻¹ :
          :.................................................:

    mode    ω/cm⁻¹     T·S(HO)/kcal·mol⁻¹    T·S(FR)/kcal·mol⁻¹   T·S(vib)
   ------------------------------------------------------------------------
   ------------------------------------------------------------------------

   temp. (K)  partition function   enthalpy   heat capacity  entropy
                                   cal/mol     cal/K/mol   cal/K/mol   J/K/mol
 298.15  VIB   1.37                  400.170      3.981      1.968
         ROT   795.                  888.727      2.981     16.253
         INT  0.109E+04             1288.897      6.962     18.221
         TR   0.504E+25             1481.212      4.968     36.136
         TOT                        2770.1097    11.9301    54.3572   227.4306

       T/K    H(0)-H(T)+PV         H(T)/Eh          T*S/Eh         G(T)/Eh
   ------------------------------------------------------------------------
    298.15    0.441445E-02    0.786515E-01    0.258269E-01    0.528246E-01
   ------------------------------------------------------------------------

         :::::::::::::::::::::::::::::::::::::::::::::::::::::
         ::                  THERMODYNAMIC                  ::
         :::::::::::::::::::::::::::::::::::::::::::::::::::::
         :: total free energy          -7.283545973298 Eh   ::
         ::.................................................::
         :: total energy               -7.336370572238 Eh   ::
         :: zero point energy           0.074237021649 Eh   ::
         :: G(RRHO) w/o ZPVE           -0.021412422709 Eh   ::
         :: G(RRHO) contrib.            0.052824598940 Eh   ::
         :::::::::::::::::::::::::::::::::::::::::::::::::::::

           -------------------------------------------------
          | TOTAL ENERGY               -7.336370572238 Eh   |
          | TOTAL ENTHALPY             -7.257719099868 Eh   |
          | TOTAL FREE ENERGY          -7.283545973298 Eh   |
          | GRADIENT NORM               0.000323071875 Eh/α |
          | HOMO-LUMO GAP              15.502230462553 eV   |
           -------------------------------------------------

------------------------------------------------------------------------
 * finished run on 2026/08/28 at 19:11:55.127     
------------------------------------------------------------------------
normal termination of xtb
 total:
 * wall-time:     0 d,  0 h,  0 min,  0.167 sec
 *  cpu-time:     0 d,  0 h,  0 min,  0.086 sec
 * ratio c/w:     0.516 speedup
 SCF:
 * wall-time:     0 d,  0 h,  0 min,  0.012 sec
 *  cpu-time:     0 d,  0 h,  0 min,  0.003 sec
 * ratio c/w:     0.279 speedup
 analytical hessian:
 * wall-time:     0 d,  0 h,  0 min,  0.129 sec
 *  cpu-time:     0 d,  0 h,  0 min,  0.077 sec
 * ratio c/w:     0.597 speedup

