      -----------------------------------------------------------      
     |                   =====================                   |     
     |                           x T B                           |     
     |                   =====================                   |     
     |                         S. Grimme                         |     
     |          Mulliken Center for Theoretical Chemistry        |     
     |                    University of Bonn                     |     
      -----------------------------------------------------------      

   * xtb version 6.7.1 (unknown) compiled by 'root@buildkitsandbox' on 2026-08-28

   xtb is free software: you can redistribute it and/or modify it under
   the terms of the GNU Lesser General Public License as published by
   the Free Software Foundation, either version 3 of the License, or
   (at your option) any later version.
   
   xtb is distributed in the hope that it will be useful,
   but WITHOUT ANY WARRANTY; without even the implied warranty of
   MERCHANTABILITY or FITNESS FOR A PARTICULAR PURPOSE.  See the
   GNU Lesser General Public License for more details.
   
   Cite this work as:
   * C. Bannwarth, E. Caldeweyher, S. Ehlert, A. Hansen, P. Pracht,
     J. Seibert, S. Spicher, S. Grimme, WIREs Comput. Mol. Sci., 2020, 11,
     e01493. DOI: 10.1002/wcms.1493
   
   for GFN2-xTB:
   * C. Bannwarth, S. Ehlert and S. Grimme., J. Chem. Theory Comput., 2019,
     15, 1652-1671. DOI: 10.1021/acs.jctc.8b01176
   for GFN1-xTB:
   * S. Grimme, C. Bannwarth, P. Shushkov, J. Chem. Theory Comput., 2017,
     13, 1989-2009. DOI: 10.1021/acs.jctc.7b00118
   for GFN0-xTB:
   * P. Pracht, E. Caldeweyher, S. Ehlert, S. Grimme, ChemRxiv, 2019, preprint.
     DOI: 10.26434/chemrxiv.8326202.v1
   for GFN-FF:
   * S. Spicher and S. Grimme, Angew. Chem. Int. Ed., 2020, 59, 15665-15673.
     DOI: 10.1002/anie.202004239
   
   for ALPB and GBSA implicit solvation:
   * S. Ehlert, M. Stahn, S. Spicher, S. Grimme, J. Chem. Theory Comput.,
     2021, 17, 4250-4261. DOI: 10.1021/acs.jctc.1c00471
   
   for ddCOSMO and CPCM-X implicit solvation:
   * M. Stahn, S. Ehlert, S. Grimme, J. Phys. Chem. A,
     2023, XX, XXXX-XXXX. DOI: 10.1021/acs.jpca.3c04382
   
   for DFT-D4:
   * E. Caldeweyher, C. Bannwarth and S. Grimme, J. Chem. Phys., 2017,
     147, 034112. DOI: 10.1063/1.4993215
   * E. Caldeweyher, S. Ehlert, A. Hansen, H. Neugebauer, S. Spicher,
     C. Bannwarth and S. Grimme, J. Chem. Phys., 2019, 150, 154122.
     DOI: 10.1063/1.5090222
   * E. Caldeweyher, J.-M. Mewes, S. Ehlert and S. Grimme, Phys. Chem. Chem. Phys.
     2020, 22, 8499-8512. DOI: 10.1039/D0CP00502A
   
   for sTDA-xTB:
   * S. Grimme and C. Bannwarth, J. Chem. Phys., 2016, 145, 054103.
     DOI: 10.1063/1.4959605
   
   in the mass-spec context:
   * V. Asgeirsson, C. Bauer and S. Grimme, Chem. Sci., 2017, 8, 4879.
     DOI: 10.1039/c7sc00601b
   * J. Koopman and S. Grimme, ACS Omega 2019, 4, 12, 15120-15133.
     DOI: 10.1021/acsomega.9b02011
   
   for metadynamics refer to:
   * S. Grimme, J. Chem. Theory Comput., 2019, 155, 2847-2862
     DOI: 10.1021/acs.jctc.9b00143
   
   for SPH calculations refer to:
   * S. Spicher and S. Grimme, J. Chem. Theory Comput., 2021, 17, 1701-1714
     DOI: 10.1021/acs.jctc.0c01306
   
   for ONIOM refer to:
   * C. Plett, A. Katbashev, S. Ehlert, S. Grimme, M. Bursch,
     Phys. Chem. Chem. Phys., 2023, 25, 17860-17868. DOI: 10.1039/D3CP02178E
   
   for DIPRO refer to:
   * J. Kohn, N. Gildemeister, S. Grimme, D. Fazzi, A. Hansen,
     J. Chem. Phys. 159, 144106 (2023). DOI: 10.1063/5.0167484
   
   for PTB refer to:
   * S. Grimme, M. Mueller, A. Hansen, J. Chem. Phys., 2023, 158, 124111.
     DOI: 10.1063/5.0137838
   
   with help from (in alphabetical order)
   P. Atkinson, C. Bannwarth, F. Bohle, G. Brandenburg, E. Caldeweyher,
   M. Checinski, S. Dohm, S. Ehlert, S. Ehrlich, M. Friede, T. Froitzheim,
   I. Gerasimov, C. Hölzer, A. Katbashev, J. Kohn, J. Koopman, C. Lavigne,
   S. Lehtola, F. März, M. Müller, F. Musil, H. Neugebauer, J. Pisarek,
   C. Plett, P. Pracht, F. Pultar, J. Seibert, P. Shushkov, S. Spicher,
   M. Stahn, M. Steiner, T. Strunk, J. Stückrath, T. Rose, and J. Unsleber
   
 * started run on 2026/08/28 at 19:10:21.268     
   ID    Z sym.   atoms
    1    6 C      1-20
    2    1 H      21-62

           -------------------------------------------------
          |                Calculation Setup                |
           -------------------------------------------------

          program call               : xtb in.xyz --gfn 2 --opt --norestart
          hostname                   : 756d39058c4f
          coordinate file            : in.xyz
          random seed                :            1617781267


           -------------------------------------------------
          |                 G F N 2 - x T B                 |
           -------------------------------------------------

        Reference                      10.1021/acs.jctc.8b01176
      * Hamiltonian:
        H0-scaling (s, p, d)           1.850000    2.230000    2.230000
        zeta-weighting                 0.500000
      * Dispersion:
        s8                             2.700000
        a1                             0.520000
        a2                             5.000000
        s9                             5.000000
      * Repulsion:
        kExp                           1.500000    1.000000
        rExp                           1.000000
      * Coulomb:
        alpha                          2.000000
        third order                    shell-resolved
        anisotropic                    true
        a3                             3.000000
        a5                             4.000000
        cn-shift                       1.200000
        cn-exp                         4.000000
        max-rad                        5.000000


          ...................................................
          :                      SETUP                      :
          :.................................................:
          :  # basis functions                 122          :
          :  # atomic orbitals                 122          :
          :  # shells                           82          :
          :  # electrons                       122          :
          :  max. iterations                   250          :
          :  Hamiltonian                  GFN2-xTB          :
          :  restarted?                      false          :
          :  GBSA solvation                  false          :
          :  PC potential                    false          :
          :  electronic temp.          300.0000000     K    :
          :  accuracy                    1.0000000          :
          :  -> integral cutoff          0.2500000E+02      :
          :  -> integral neglect         0.1000000E-07      :
          :  -> SCF convergence          0.1000000E-05 Eh   :
          :  -> wf. convergence          0.1000000E-03 e    :
          :  Broyden damping             0.4000000          :
          :  net charge                          0          :
          :  unpaired electrons                  0          :
          ...................................................

 iter      E             dE          RMSdq      gap      omega  full diag
   1    -65.0589592 -0.650590E+02  0.264E+00   11.66       0.0  T
   2    -65.2217695 -0.162810E+00  0.148E+00   11.73       1.0  T
   3    -65.2241598 -0.239029E-02  0.759E-01   11.76       1.0  T
   4    -65.2246101 -0.450252E-03  0.822E-02   11.78       1.0  T
   5    -65.2246155 -0.545939E-05  0.383E-02   11.78       1.0  T
   6    -65.2246194 -0.386639E-05  0.190E-03   11.78       6.7  T
   7    -65.2246194 -0.628085E-07  0.709E-04   11.78      17.9  T
   8    -65.2246194 -0.218498E-08  0.340E-04   11.78      37.4  T

   *** convergence criteria satisfied after 8 iterations ***

         #    Occupation            Energy/Eh            Energy/eV
      -------------------------------------------------------------
         1        2.0000           -0.6227626             -16.9462
       ...           ...                  ...                  ...
        55        2.0000           -0.4179582             -11.3732
        56        2.0000           -0.4171441             -11.3511
        57        2.0000           -0.4169574             -11.3460
        58        2.0000           -0.4166152             -11.3367
        59        2.0000           -0.4165064             -11.3337
        60        2.0000           -0.4129055             -11.2357
        61        2.0000           -0.4025859             -10.9549 (HOMO)
        62                          0.0303477               0.8258 (LUMO)
        63                          0.0492944               1.3414
        64                          0.0775081               2.1091
        65                          0.0910460               2.4775
        66                          0.0969995               2.6395
       ...                                ...                  ...
       122                          0.3200180               8.7081
      -------------------------------------------------------------
                  HL-Gap            0.4329335 Eh           11.7807 eV
             Fermi-level           -0.1861191 Eh           -5.0646 eV

 SCC (total)                   0 d,  0 h,  0 min,  0.127 sec
 SCC setup                      ...        0 min,  0.000 sec (  0.355%)
 Dispersion                     ...        0 min,  0.001 sec (  0.422%)
 classical contributions        ...        0 min,  0.000 sec (  0.073%)
 integral evaluation            ...        0 min,  0.012 sec (  9.607%)
 iterations                     ...        0 min,  0.083 sec ( 65.286%)
 molecular gradient             ...        0 min,  0.030 sec ( 23.342%)
 printout                       ...        0 min,  0.001 sec (  0.903%)

         :::::::::::::::::::::::::::::::::::::::::::::::::::::
         ::                     SUMMARY                     ::
         :::::::::::::::::::::::::::::::::::::::::::::::::::::
         :: total energy             -64.294187565908 Eh    ::
         :: gradient norm              0.024293201967 Eh/a0 ::
         :: HOMO-LUMO gap             11.780720718051 eV    ::
         ::.................................................::
         :: SCC energy               -65.225237912168 Eh    ::
         :: -> isotropic ES            0.010035249387 Eh    ::
         :: -> anisotropic ES          0.021156397869 Eh    ::
         :: -> anisotropic XC          0.039861288996 Eh    ::
         :: -> dispersion             -0.041562768373 Eh    ::
         :: repulsion energy           0.931050346261 Eh    ::
         :: add. restraining           0.000000000000 Eh    ::
         :: total charge               0.000000000000 e     ::
         :::::::::::::::::::::::::::::::::::::::::::::::::::::

      ----------------------------------------------------------- 
     |                   =====================                   |
     |                        A N C O P T                        |
     |                   =====================                   |
     |               Approximate Normal Coordinate               |
     |                Rational Function Optimizer                |
      ----------------------------------------------------------- 

          ...................................................
          :                      SETUP                      :
          :.................................................:
          :   optimization level            normal          :
          :   max. optcycles                   200          :
          :   ANC micro-cycles                  20          :
          :   degrees of freedom               180          :
          :.................................................:
          :   RF solver                   davidson          :
          :   write xtbopt.log                true          :
          :   linear?                        false          :
          :   energy convergence         0.5000000E-05 Eh   :
          :   grad. convergence          0.1000000E-02 Eh/α :
          :   maximum RF displ.          1.0000000          :
          :   Hlow (freq-cutoff)         0.1000000E-01      :
          :   Hmax (freq-cutoff)         5.0000000          :
          :   S6 in model hess.         20.0000000          :
          ...................................................

generating ANC from exact Hessian ...
Using Lindh-Hessian (1995)
 Shifting diagonal of input Hessian by    9.9497639297706462E-003
 Lowest  eigenvalues of input Hessian
    0.000000    0.000000    0.000000    0.000000    0.000000    0.000000
    0.010000    0.010013    0.010181    0.010265    0.010624    0.010930
    0.011029    0.011401    0.011526    0.011589    0.012224    0.012274
 Highest eigenvalues
    1.239323    1.252395    1.272548    1.288358    1.299110    1.305051


........................................................................
.............................. CYCLE    1 ..............................
........................................................................

 iter      E             dE          RMSdq      gap      omega  full diag
   1    -65.2246194 -0.652246E+02  0.623E-05   11.78       0.0  T
   2    -65.2246194 -0.175362E-10  0.347E-05   11.78     366.0  T
   3    -65.2246194 -0.167688E-11  0.106E-05   11.78    1199.8  T
     SCC iter.                  ...        0 min,  0.026 sec
     gradient                   ...        0 min,  0.048 sec
 * total energy  :   -64.2941876 Eh     change       -0.4110774E-09 Eh
   gradient norm :     0.0242895 Eh/α   predicted     0.0000000E+00 (-100.00%)
   displ. norm   :     0.1447735 α      lambda       -0.2345107E-02
   maximum displ.:     0.0813466 α      in ANC's #84, #9, #120, ...

........................................................................
.............................. CYCLE    2 ..............................
........................................................................

 iter      E             dE          RMSdq      gap      omega  full diag
   1    -65.2511414 -0.652511E+02  0.846E-02   11.80       0.0  T
   2    -65.2511482 -0.677027E-05  0.489E-02   11.79       1.0  T
   3    -65.2511490 -0.862377E-06  0.357E-03   11.79       3.6  T
   4    -65.2511491 -0.384731E-07  0.152E-03   11.79       8.4  T
   5    -65.2511491  0.320455E-10  0.496E-04   11.79      25.6  T
   6    -65.2511491 -0.142752E-08  0.528E-05   11.79     240.6  T
     SCC iter.                  ...        0 min,  0.048 sec
     gradient                   ...        0 min,  0.030 sec
 * total energy  :   -64.2954419 Eh     change       -0.1254328E-02 Eh
   gradient norm :     0.0064912 Eh/α   predicted    -0.1197132E-02 (  -4.56%)
   displ. norm   :     0.0458612 α      lambda       -0.6928206E-04
   maximum displ.:     0.0418321 α      in ANC's #9, #11, #29, ...

........................................................................
.............................. CYCLE    3 ..............................
........................................................................

 iter      E             dE          RMSdq      gap      omega  full diag
   1    -65.2545762 -0.652546E+02  0.983E-03   11.78       0.0  T
   2    -65.2545768 -0.547892E-06  0.548E-03   11.78       2.3  T
   3    -65.2545768 -0.997132E-08  0.150E-03   11.78       8.5  T
   4    -65.2545768 -0.234645E-08  0.186E-04   11.78      68.3  T
   5    -65.2545768 -0.115193E-09  0.106E-04   11.78     120.0  T
     SCC iter.                  ...        0 min,  0.039 sec
     gradient                   ...        0 min,  0.023 sec
 * total energy  :   -64.2954897 Eh     change       -0.4784699E-04 Eh
   gradient norm :     0.0024325 Eh/α   predicted    -0.3545688E-04 ( -25.90%)
   displ. norm   :     0.0513980 α      lambda       -0.2862498E-04
   maximum displ.:     0.0490155 α      in ANC's #9, #11, #21, ...

........................................................................
.............................. CYCLE    4 ..............................
........................................................................

 iter      E             dE          RMSdq      gap      omega  full diag
   1    -65.2552649 -0.652553E+02  0.574E-03   11.75       0.0  T
   2    -65.2552651 -0.157021E-06  0.339E-03   11.75       3.7  T
   3    -65.2552651 -0.176207E-08  0.795E-04   11.75      16.0  T
   4    -65.2552651 -0.970331E-09  0.893E-05   11.75     142.2  T
     SCC iter.                  ...        0 min,  0.036 sec
     gradient                   ...        0 min,  0.030 sec
 * total energy  :   -64.2955093 Eh     change       -0.1955127E-04 Eh
   gradient norm :     0.0009511 Eh/α   predicted    -0.1442899E-04 ( -26.20%)
   displ. norm   :     0.0470914 α      lambda       -0.8748114E-05
   maximum displ.:     0.0446372 α      in ANC's #9, #11, #21, ...

........................................................................
.............................. CYCLE    5 ..............................
........................................................................

 iter      E             dE          RMSdq      gap      omega  full diag
   1    -65.2542220 -0.652542E+02  0.421E-03   11.74       0.0  T
   2    -65.2542220 -0.393432E-08  0.251E-03   11.74       5.1  T
   3    -65.2542220 -0.108352E-08  0.144E-04   11.74      88.2  T
   4    -65.2542220 -0.242537E-09  0.788E-05   11.74     161.1  T
     SCC iter.                  ...        0 min,  0.030 sec
     gradient                   ...        0 min,  0.028 sec
 * total energy  :   -64.2955189 Eh     change       -0.9598658E-05 Eh
   gradient norm :     0.0012500 Eh/α   predicted    -0.4402067E-05 ( -54.14%)
   displ. norm   :     0.0263931 α      lambda       -0.3861895E-05
   maximum displ.:     0.0247879 α      in ANC's #9, #11, #29, ...

........................................................................
.............................. CYCLE    6 ..............................
........................................................................

 iter      E             dE          RMSdq      gap      omega  full diag
   1    -65.2535233 -0.652535E+02  0.354E-03   11.73       0.0  T
   2    -65.2535233 -0.190049E-07  0.201E-03   11.73       6.3  T
   3    -65.2535233 -0.222116E-09  0.253E-04   11.73      50.3  T
   4    -65.2535233 -0.184215E-09  0.337E-05   11.73     376.6  T
     SCC iter.                  ...        0 min,  0.029 sec
     gradient                   ...        0 min,  0.032 sec
 * total energy  :   -64.2955232 Eh     change       -0.4286474E-05 Eh
   gradient norm :     0.0002945 Eh/α   predicted    -0.1931924E-05 ( -54.93%)
   displ. norm   :     0.0176753 α      lambda       -0.1238211E-05
   maximum displ.:     0.0167510 α      in ANC's #9, #11, #4, ...

   *** GEOMETRY OPTIMIZATION CONVERGED AFTER 6 ITERATIONS ***

------------------------------------------------------------------------
 total energy gain   :        -0.0013356 Eh       -0.8381 kcal/mol
 total RMSD          :         0.0351067 a0        0.0186 Å
 total power (kW/mol):        -0.5844413 (step)   -7.1161 (real)
------------------------------------------------------------------------

 ANCopt (total)                0 d,  0 h,  0 min,  0.493 sec
 optimizer setup                ...        0 min,  0.000 sec (  0.073%)
 model hessian                  ...        0 min,  0.029 sec (  5.942%)
 ANC generation                 ...        0 min,  0.020 sec (  4.070%)
 coordinate transformation      ...        0 min,  0.001 sec (  0.209%)
 single point calculation       ...        0 min,  0.437 sec ( 88.717%)
 optimization log               ...        0 min,  0.001 sec (  0.182%)
 hessian update                 ...        0 min,  0.000 sec (  0.084%)
 rational function              ...        0 min,  0.002 sec (  0.314%)

================
 final structure:
================
62
 xtb: 6.7.1 (unknown)
C            0.88364307117424       -0.02324030646277       -0.16478061184388
C            2.40721674705608       -0.03525935445447       -0.13987029356929
C            2.94957753495916       -0.52415460559525        1.20088995805317
C            4.47559111188599       -0.53886784380836        1.23399675426855
C            5.01630886386128       -1.02840794609670        2.57501670852111
C            6.54236259927904       -1.04264580277897        2.60719070563509
C            7.08395488537674       -1.53295765984479        3.94741934121770
C            8.60997157813742       -1.54684285234780        3.97836061328695
C            9.15229318767468       -2.03820401493474        5.31783755092396
C           10.67827850360003       -2.05199321955303        5.34822620833998
C           11.22080777314666       -2.54442973671481        6.68720551701963
C           12.74679294831992       -2.55816765479765        6.71761270072351
C           13.28911213549790       -3.05152238121374        8.05635785072216
C           14.81512911038772       -3.06525218146616        8.08735431112671
C           15.35671738466213       -3.55928813014240        9.42621609088519
C           16.88277133563999       -3.57337862136585        9.45844213320418
C           17.42348349640859       -4.06782385119987       10.79766347384830
C           18.94949751993907       -4.08231624045739       10.83084802418622
C           19.49185261403971       -4.57663462338249       12.16962051816535
C           21.01542730702181       -4.58812752088783       12.19471952828848
H            0.51786959399018        0.32744873670591       -1.12709553942642
H            0.49524939229177        0.63374068006076        0.61055003986308
H            0.49203148740250       -1.02346539784195        0.00785116197027
H            2.78147481709212        0.97260495373183       -0.33384944818939
H            2.77825865816900       -0.68409211806545       -0.93663397213795
H            2.57484646709327       -1.53209554790007        1.39486076876425
H            2.57773145800202        0.12446948537130        1.99776362455660
H            4.85070212626091        0.46900898596202        1.04024795028778
H            4.84780501523756       -1.18706993108631        0.43690412334065
H            4.64203757903601       -2.03648728018385        2.76898058491450
H            4.64473239339570       -0.38042504161417        3.37249346669991
H            6.91681181210658       -0.03451552983738        2.41391033577237
H            6.91406536360851       -1.69014798280064        1.80939372386291
H            6.70997128050518       -2.54121699306812        4.14087717999352
H            6.71272305058558       -0.88560695062097        4.74553816313636
H            8.98404870577273       -0.53847503884730        3.78566679489305
H            8.98121816760333       -2.19358827443175        3.17975317849621
H            8.77842684935021       -3.04664522305846        5.51055265672438
H            8.78126096880281       -1.39156717055324        6.11662277516331
H           11.05221210668642       -1.04343952378008        5.15624369755196
H           11.04930740344406       -2.69806225870737        4.54897466327924
H           10.84694879249633       -3.55303699584937        6.87906769875257
H           10.84970374392042       -1.89847922084713        7.48651431150141
H           13.12064108018877       -1.54944849550601        6.52633725943840
H           13.11784594036719       -3.20366134208831        5.91790938402442
H           12.91519994678228       -4.06027145122719        8.24738250187472
H           12.91769872316070       -2.40614706973593        8.85599207298984
H           15.18899725208982       -2.05641687969500        7.89670891291767
H           15.18647953674466       -3.71034489595833        7.28746122054536
H           14.98244487643534       -4.56804911324343        9.61653540212814
H           14.98483462734139       -2.91418159463222       10.22586545220685
H           17.25689917038884       -2.56453508852533        9.26821882768804
H           17.25449577062935       -4.21836110118420        8.65860349446360
H           17.04859696267708       -5.07651767651977       10.98756217028141
H           17.05104077100361       -3.42273291799395       11.59716823928605
H           19.32401387745929       -3.07349781240399       10.64107328632911
H           19.32156285446568       -4.72756017587192       10.03133590753644
H           19.11798437218421       -5.58546529483846       12.35928171102185
H           19.12041602817922       -3.93132790351276       12.96905903201220
H           21.40421625681332       -5.24155869746141       11.41659208230475
H           21.38119606992387       -4.94285813895430       13.15555373555420
H           21.40664894224404       -3.58699616588059       12.02651428462330

 Bond Distances (Angstroems)
 ---------------------------
C1-C2=1.5238         C1-H21=1.0876        C1-H22=1.0879        C1-H23=1.0879        C2-C1=1.5238         C2-C3=1.5267         
C2-H24=1.0925        C2-H25=1.0925        C3-C2=1.5267         C3-C4=1.5264         C3-H26=1.0927        C3-H27=1.0927        
C4-C3=1.5264         C4-C5=1.5266         C4-H28=1.0927        C4-H29=1.0927        C5-C4=1.5266         C5-C6=1.5265         
C5-H30=1.0927        C5-H31=1.0927        C6-C5=1.5265         C6-C7=1.5264         C6-H32=1.0927        C6-H33=1.0927        
C7-C6=1.5264         C7-C8=1.5264         C7-H34=1.0926        C7-H35=1.0926        C8-C7=1.5264         C8-C9=1.5264         
C8-H36=1.0926        C8-H37=1.0926        C9-C8=1.5264         C9-C10=1.5264        C9-H38=1.0926        C9-H39=1.0926        
C10-C9=1.5264        C10-C11=1.5263       C10-H40=1.0926       C10-H41=1.0926       C11-C10=1.5263       C11-C12=1.5264       
C11-H42=1.0926       C11-H43=1.0926       C12-C11=1.5264       C12-C13=1.5264       C12-H44=1.0926       C12-H45=1.0926       
C13-C12=1.5264       C13-C14=1.5264       C13-H46=1.0926       C13-H47=1.0926       C14-C13=1.5264       C14-C15=1.5264       
C14-H48=1.0926       C14-H49=1.0926       C15-C14=1.5264       C15-C16=1.5265       C15-H50=1.0927       C15-H51=1.0927       
C16-C15=1.5265       C16-C17=1.5266       C16-H52=1.0927       C16-H53=1.0927       C17-C16=1.5266       C17-C18=1.5264       
C17-H54=1.0927       C17-H55=1.0927       C18-C17=1.5264       C18-C19=1.5267       C18-H56=1.0927       C18-H57=1.0927       
C19-C18=1.5267       C19-C20=1.5238       C19-H58=1.0925       C19-H59=1.0925       C20-C19=1.5238       C20-H60=1.0879       
C20-H61=1.0876       C20-H62=1.0879       H21-C1=1.0876        H22-C1=1.0879        H23-C1=1.0879        H24-C2=1.0925        
H25-C2=1.0925        H26-C3=1.0927        H27-C3=1.0927        H28-C4=1.0927        H29-C4=1.0927        H30-C5=1.0927        
H31-C5=1.0927        H32-C6=1.0927        H33-C6=1.0927        H34-C7=1.0926        H35-C7=1.0926        H36-C8=1.0926        
H37-C8=1.0926        H38-C9=1.0926        H39-C9=1.0926        H40-C10=1.0926       H41-C10=1.0926       H42-C11=1.0926       
H43-C11=1.0926       H44-C12=1.0926       H45-C12=1.0926       H46-C13=1.0926       H47-C13=1.0926       H48-C14=1.0926       
H49-C14=1.0926       H50-C15=1.0927       H51-C15=1.0927       H52-C16=1.0927       H53-C16=1.0927       H54-C17=1.0927       
H55-C17=1.0927       H56-C18=1.0927       H57-C18=1.0927       H58-C19=1.0925       H59-C19=1.0925       H60-C20=1.0879       
H61-C20=1.0876       H62-C20=1.0879       
 C  H  Rav=1.0920 sigma=0.0017  Rmin=1.0876  Rmax=1.0927    42
 C  C  Rav=1.5262 sigma=0.0008  Rmin=1.5238  Rmax=1.5267    19

 selected bond angles (degree)
 --------------------
H21-C1-C2=110.69               H22-C1-C2=110.49               H22-C1-H21=108.41              H23-C1-C2=110.49               
H23-C1-H21=108.41              H23-C1-H22=108.28              C3-C2-C1=111.84                H24-C2-C1=109.41               
H24-C2-C3=109.25               H25-C2-C1=109.41               H25-C2-C3=109.25               H25-C2-H24=107.58              
C4-C3-C2=112.17                H26-C3-C2=109.24               H26-C3-C4=109.28               H27-C3-C2=109.24               
H27-C3-C4=109.28               H27-C3-H26=107.54              C5-C4-C3=112.10                H28-C4-C3=109.30               
H28-C4-C5=109.27               H29-C4-C3=109.29               H29-C4-C5=109.26               H29-C4-H28=107.51              
C6-C5-C4=112.06                H30-C5-C4=109.30               H30-C5-C6=109.27               H31-C5-C4=109.30               
H31-C5-C6=109.28               H31-C5-H30=107.52              C7-C6-C5=112.10                H32-C6-C5=109.29               
H32-C6-C7=109.27               H33-C6-C5=109.28               H33-C6-C7=109.27               H33-C6-H32=107.52              
C8-C7-C6=112.05                H34-C7-C6=109.29               H34-C7-C8=109.28               H35-C7-C6=109.30               
H35-C7-C8=109.28               H35-C7-H34=107.52              C9-C8-C7=112.08                H36-C8-C7=109.29               
H36-C8-C9=109.28               H37-C8-C7=109.28               H37-C8-C9=109.28               H37-C8-H36=107.52              
C10-C9-C8=112.06               H38-C9-C8=109.29               H38-C9-C10=109.28              H39-C9-C8=109.29               
H39-C9-C10=109.29              H39-C9-H38=107.52              C11-C10-C9=112.07              H40-C10-C9=109.29              
H40-C10-C11=109.29             H41-C10-C9=109.28              H41-C10-C11=109.28             H41-C10-H40=107.52             

 selected dihedral angles (degree)
 ---------------------------------
C3-C2-C1-H21=180.01           C3-C2-C1-H22= 59.91           C3-C2-C1-H23=300.11           H24-C2-C1-H21= 58.82          
H24-C2-C1-H22=298.72          H24-C2-C1-H23=178.92          H25-C2-C1-H21=301.19          H25-C2-C1-H22=181.10          
H25-C2-C1-H23= 61.29          C4-C3-C2-C1=180.01            C4-C3-C2-H24=301.29           C4-C3-C2-H25= 58.73           
H26-C3-C2-C1= 58.70           H26-C3-C2-H24=179.98          H26-C3-C2-H25=297.42          H27-C3-C2-C1=301.32           
H27-C3-C2-H24= 62.60          H27-C3-C2-H25=180.04          C5-C4-C3-C2=180.02            C5-C4-C3-H26=301.31           
C5-C4-C3-H27= 58.73           H28-C4-C3-C2= 58.72           H28-C4-C3-H26=180.01          H28-C4-C3-H27=297.43          
H29-C4-C3-C2=301.32           H29-C4-C3-H26= 62.60          H29-C4-C3-H27=180.03          C6-C5-C4-C3=180.01            
C6-C5-C4-H28=301.32           C6-C5-C4-H29= 58.69           H30-C5-C4-C3= 58.72           H30-C5-C4-H28=180.04          
H30-C5-C4-H29=297.41          H31-C5-C4-C3=301.29           H31-C5-C4-H28= 62.61          H31-C5-C4-H29=179.98          
C7-C6-C5-C4=180.04            C7-C6-C5-H30=301.34           C7-C6-C5-H31= 58.74           H32-C6-C5-C4= 58.74           
H32-C6-C5-H30=180.04          H32-C6-C5-H31=297.44          H33-C6-C5-C4=301.33           H33-C6-C5-H30= 62.63          
H33-C6-C5-H31=180.03          C8-C7-C6-C5=180.00            C8-C7-C6-H32=301.30           C8-C7-C6-H33= 58.70           
H34-C7-C6-C5= 58.71           H34-C7-C6-H32=180.02          H34-C7-C6-H33=297.41          H35-C7-C6-C5=301.29           
H35-C7-C6-H32= 62.59          H35-C7-C6-H33=179.99          C9-C8-C7-C6=180.05            C9-C8-C7-H34=301.34           
C9-C8-C7-H35= 58.75           H36-C8-C7-C6= 58.75           H36-C8-C7-H34=180.04          H36-C8-C7-H35=297.45          
H37-C8-C7-C6=301.34           H37-C8-C7-H34= 62.63          H37-C8-C7-H35=180.04          C10-C9-C8-C7=180.00           
C10-C9-C8-H36=301.30          C10-C9-C8-H37= 58.70          H38-C9-C8-C7= 58.71           H38-C9-C8-H36=180.01          
H38-C9-C8-H37=297.41          H39-C9-C8-C7=301.29           H39-C9-C8-H36= 62.59          H39-C9-C8-H37=180.00          
C11-C10-C9-C8=180.05          C11-C10-C9-H38=301.34         C11-C10-C9-H39= 58.75         H40-C10-C9-C8= 58.75          
H40-C10-C9-H38=180.04         H40-C10-C9-H39=297.45         H41-C10-C9-C8=301.34          H41-C10-C9-H38= 62.63         
H41-C10-C9-H39=180.04         
           -------------------------------------------------
          |                Final Singlepoint                |
           -------------------------------------------------

          ...................................................
          :                      SETUP                      :
          :.................................................:
          :  # basis functions                 122          :
          :  # atomic orbitals                 122          :
          :  # shells                           82          :
          :  # electrons                       122          :
          :  max. iterations                   250          :
          :  Hamiltonian                  GFN2-xTB          :
          :  restarted?                      false          :
          :  GBSA solvation                  false          :
          :  PC potential                    false          :
          :  electronic temp.          300.0000000     K    :
          :  accuracy                    1.0000000          :
          :  -> integral cutoff          0.2500000E+02      :
          :  -> integral neglect         0.1000000E-07      :
          :  -> SCF convergence          0.1000000E-05 Eh   :
          :  -> wf. convergence          0.1000000E-03 e    :
          :  Broyden damping             0.4000000          :
          :  net charge                          0          :
          :  unpaired electrons                  0          :
          ...................................................

 iter      E             dE          RMSdq      gap      omega  full diag
   1    -65.2535233 -0.652535E+02  0.182E-05   11.73       0.0  T
   2    -65.2535233 -0.312639E-12  0.112E-05   11.73    1137.9  T
   3    -65.2535233 -0.284217E-13  0.119E-06   11.73   10636.5  T

   *** convergence criteria satisfied after 3 iterations ***

         #    Occupation            Energy/Eh            Energy/eV
      -------------------------------------------------------------
         1        2.0000           -0.6235822             -16.9685
       ...           ...                  ...                  ...
        55        2.0000           -0.4180710             -11.3763
        56        2.0000           -0.4167454             -11.3402
        57        2.0000           -0.4166752             -11.3383
        58        2.0000           -0.4163459             -11.3293
        59        2.0000           -0.4162507             -11.3268
        60        2.0000           -0.4152570             -11.2997
        61        2.0000           -0.4052356             -11.0270 (HOMO)
        62                          0.0258308               0.7029 (LUMO)
        63                          0.0447843               1.2186
        64                          0.0733108               1.9949
        65                          0.0984026               2.6777
        66                          0.1044062               2.8410
       ...                                ...                  ...
       122                          0.3284936               8.9388
      -------------------------------------------------------------
                  HL-Gap            0.4310664 Eh           11.7299 eV
             Fermi-level           -0.1897024 Eh           -5.1621 eV

 SCC (total)                   0 d,  0 h,  0 min,  0.056 sec
 SCC setup                      ...        0 min,  0.001 sec (  1.205%)
 Dispersion                     ...        0 min,  0.001 sec (  1.724%)
 classical contributions        ...        0 min,  0.000 sec (  0.518%)
 integral evaluation            ...        0 min,  0.010 sec ( 17.970%)
 iterations                     ...        0 min,  0.023 sec ( 40.760%)
 molecular gradient             ...        0 min,  0.020 sec ( 36.410%)
 printout                       ...        0 min,  0.001 sec (  1.375%)

         :::::::::::::::::::::::::::::::::::::::::::::::::::::
         ::                     SUMMARY                     ::
         :::::::::::::::::::::::::::::::::::::::::::::::::::::
         :: total energy             -64.295523177562 Eh    ::
         :: gradient norm              0.000294618953 Eh/a0 ::
         :: HOMO-LUMO gap             11.729914287437 eV    ::
         ::.................................................::
         :: SCC energy               -65.254150296292 Eh    ::
         :: -> isotropic ES            0.010298551536 Eh    ::
         :: -> anisotropic ES          0.020086335258 Eh    ::
         :: -> anisotropic XC          0.038499095498 Eh    ::
         :: -> dispersion             -0.041518176336 Eh    ::
         :: repulsion energy           0.958627118730 Eh    ::
         :: add. restraining           0.000000000000 Eh    ::
         :: total charge              -0.000000000000 e     ::
         :::::::::::::::::::::::::::::::::::::::::::::::::::::

           -------------------------------------------------
          |                Property Printout                |
           -------------------------------------------------

    * Orbital Energies and Occupations

         #    Occupation            Energy/Eh            Energy/eV
      -------------------------------------------------------------
         1        2.0000           -0.6235822             -16.9685
       ...           ...                  ...                  ...
        49        2.0000           -0.4302560             -11.7079
        50        2.0000           -0.4276396             -11.6367
        51        2.0000           -0.4265302             -11.6065
        52        2.0000           -0.4255886             -11.5809
        53        2.0000           -0.4249279             -11.5629
        54        2.0000           -0.4207212             -11.4484
        55        2.0000           -0.4180710             -11.3763
        56        2.0000           -0.4167454             -11.3402
        57        2.0000           -0.4166752             -11.3383
        58        2.0000           -0.4163459             -11.3293
        59        2.0000           -0.4162507             -11.3268
        60        2.0000           -0.4152570             -11.2997
        61        2.0000           -0.4052356             -11.0270 (HOMO)
        62                          0.0258308               0.7029 (LUMO)
        63                          0.0447843               1.2186
        64                          0.0733108               1.9949
        65                          0.0984026               2.6777
        66                          0.1044062               2.8410
        67                          0.1071270               2.9151
        68                          0.1117337               3.0404
        69                          0.1120705               3.0496
        70                          0.1140708               3.1040
        71                          0.1148066               3.1240
        72                          0.1148289               3.1247
       ...                                ...                  ...
       122                          0.3284936               8.9388
      -------------------------------------------------------------
                  HL-Gap            0.4310664 Eh           11.7299 eV
             Fermi-level           -0.1897024 Eh           -5.1621 eV

     #   Z          covCN         q      C6AA      α(0)
     1   6          3.752    -0.102    22.511     6.766
     2   6          3.801    -0.053    21.524     6.605
     3   6          3.803    -0.059    21.634     6.622
     4   6          3.803    -0.058    21.623     6.620
     5   6          3.803    -0.058    21.619     6.620
     6   6          3.803    -0.058    21.621     6.620
     7   6          3.803    -0.058    21.621     6.620
     8   6          3.803    -0.058    21.622     6.620
     9   6          3.803    -0.058    21.622     6.620
    10   6          3.803    -0.058    21.622     6.620
    11   6          3.803    -0.058    21.622     6.620
    12   6          3.803    -0.058    21.622     6.620
    13   6          3.803    -0.058    21.622     6.620
    14   6          3.803    -0.058    21.621     6.620
    15   6          3.803    -0.058    21.621     6.620
    16   6          3.803    -0.058    21.619     6.620
    17   6          3.803    -0.058    21.623     6.620
    18   6          3.803    -0.059    21.634     6.622
    19   6          3.801    -0.053    21.524     6.605
    20   6          3.752    -0.102    22.511     6.766
    21   1          0.925     0.033     2.550     2.497
    22   1          0.925     0.033     2.541     2.493
    23   1          0.925     0.033     2.541     2.493
    24   1          0.924     0.028     2.608     2.525
    25   1          0.924     0.028     2.608     2.525
    26   1          0.924     0.030     2.590     2.517
    27   1          0.924     0.030     2.590     2.517
    28   1          0.924     0.029     2.607     2.525
    29   1          0.924     0.029     2.607     2.525
    30   1          0.924     0.029     2.600     2.521
    31   1          0.924     0.029     2.600     2.521
    32   1          0.924     0.029     2.600     2.521
    33   1          0.924     0.029     2.600     2.521
    34   1          0.924     0.029     2.599     2.521
    35   1          0.924     0.029     2.599     2.521
    36   1          0.924     0.029     2.599     2.521
    37   1          0.924     0.029     2.598     2.521
    38   1          0.924     0.029     2.598     2.521
    39   1          0.924     0.029     2.598     2.521
    40   1          0.924     0.029     2.598     2.521
    41   1          0.924     0.029     2.598     2.521
    42   1          0.924     0.029     2.598     2.521
    43   1          0.924     0.029     2.598     2.521
    44   1          0.924     0.029     2.598     2.521
    45   1          0.924     0.029     2.598     2.521
    46   1          0.924     0.029     2.599     2.521
    47   1          0.924     0.029     2.599     2.521
    48   1          0.924     0.029     2.599     2.521
    49   1          0.924     0.029     2.599     2.521
    50   1          0.924     0.029     2.600     2.521
    51   1          0.924     0.029     2.600     2.521
    52   1          0.924     0.029     2.600     2.521
    53   1          0.924     0.029     2.600     2.521
    54   1          0.924     0.029     2.607     2.525
    55   1          0.924     0.029     2.607     2.525
    56   1          0.924     0.030     2.590     2.517
    57   1          0.924     0.030     2.590     2.517
    58   1          0.924     0.028     2.608     2.525
    59   1          0.924     0.028     2.608     2.525
    60   1          0.925     0.033     2.541     2.493
    61   1          0.925     0.033     2.550     2.497
    62   1          0.925     0.033     2.541     2.493

 Mol. C6AA /au·bohr⁶  :      25771.593084
 Mol. C8AA /au·bohr⁸  :     540404.839439
 Mol. α(0) /au        :        238.405143


Wiberg/Mayer (AO) data.
largest (>0.10) Wiberg bond orders for each atom

 ---------------------------------------------------------------------------
     #   Z sym  total        # sym  WBO       # sym  WBO       # sym  WBO
 ---------------------------------------------------------------------------
     1   6      3.997 --     2      1.019    22      0.988    23      0.988
                            21      0.988
     2   6      3.998 --     1      1.019     3      1.008    25      0.979
                            24      0.979
     3   6      3.997 --     2      1.008     4      1.007    27      0.978
                            26      0.978
     4   6      3.997 --     3      1.007     5      1.007    28      0.978
                            29      0.978
     5   6      3.997 --     4      1.007     6      1.007    31      0.978
                            30      0.978
     6   6      3.997 --     7      1.007     5      1.007    32      0.977
                            33      0.977
     7   6      3.997 --     6      1.007     8      1.007    35      0.978
                            34      0.977
     8   6      3.997 --     9      1.007     7      1.007    36      0.977
                            37      0.977
     9   6      3.997 --     8      1.007    10      1.007    39      0.977
                            38      0.977
    10   6      3.997 --    11      1.007     9      1.007    40      0.977
                            41      0.977
    11   6      3.997 --    10      1.007    12      1.007    43      0.977
                            42      0.977
    12   6      3.997 --    13      1.007    11      1.007    44      0.977
                            45      0.977
    13   6      3.997 --    12      1.007    14      1.007    47      0.977
                            46      0.977
    14   6      3.997 --    15      1.007    13      1.007    48      0.977
                            49      0.977
    15   6      3.997 --    14      1.007    16      1.007    51      0.977
                            50      0.977
    16   6      3.997 --    17      1.007    15      1.007    52      0.978
                            53      0.978
    17   6      3.997 --    18      1.007    16      1.007    55      0.978
                            54      0.978
    18   6      3.997 --    19      1.008    17      1.007    56      0.978
                            57      0.978
    19   6      3.998 --    20      1.019    18      1.008    58      0.979
                            59      0.979
    20   6      3.997 --    19      1.019    60      0.988    62      0.988
                            61      0.988
    21   1      0.999 --     1      0.988
    22   1      0.999 --     1      0.988
    23   1      0.999 --     1      0.988
    24   1      0.999 --     2      0.979
    25   1      0.999 --     2      0.979
    26   1      0.999 --     3      0.978
    27   1      0.999 --     3      0.978
    28   1      0.999 --     4      0.978
    29   1      0.999 --     4      0.978
    30   1      0.999 --     5      0.978
    31   1      0.999 --     5      0.978
    32   1      0.999 --     6      0.977
    33   1      0.999 --     6      0.977
    34   1      0.999 --     7      0.977
    35   1      0.999 --     7      0.978
    36   1      0.999 --     8      0.977
    37   1      0.999 --     8      0.977
    38   1      0.999 --     9      0.977
    39   1      0.999 --     9      0.977
    40   1      0.999 --    10      0.977
    41   1      0.999 --    10      0.977
    42   1      0.999 --    11      0.977
    43   1      0.999 --    11      0.977
    44   1      0.999 --    12      0.977
    45   1      0.999 --    12      0.977
    46   1      0.999 --    13      0.977
    47   1      0.999 --    13      0.977
    48   1      0.999 --    14      0.977
    49   1      0.999 --    14      0.977
    50   1      0.999 --    15      0.977
    51   1      0.999 --    15      0.977
    52   1      0.999 --    16      0.978
    53   1      0.999 --    16      0.978
    54   1      0.999 --    17      0.978
    55   1      0.999 --    17      0.978
    56   1      0.999 --    18      0.978
    57   1      0.999 --    18      0.978
    58   1      0.999 --    19      0.979
    59   1      0.999 --    19      0.979
    60   1      0.999 --    20      0.988
    61   1      0.999 --    20      0.988
    62   1      0.999 --    20      0.988
 ---------------------------------------------------------------------------

Topologies differ in total number of bonds
Writing topology from bond orders to xtbtopo.mol

molecular dipole:
                 x           y           z       tot (Debye)
 q only:       -0.000      -0.000      -0.000
   full:        0.000      -0.000      -0.000       0.000
molecular quadrupole (traceless):
                xx          xy          yy          xz          yz          zz
 q only:        1.433      -0.272      -1.244       0.722      -0.450      -0.189
  q+dip:       -4.003       0.916       4.943      -2.457       2.496      -0.940
   full:       -1.478       0.345       2.068      -0.928       1.127      -0.590

           -------------------------------------------------
          |                Geometry Summary                 |
           -------------------------------------------------

      molecular mass/u    :      282.5482295
   center of mass at/Å    :       10.9495405      -2.3015084       6.0165050
  moments of inertia/u·Å² :        0.1209176E+03   0.1531815E+05   0.1537642E+05
rotational constants/cm⁻¹ :        0.1394142E+00   0.1100501E-02   0.1096330E-02

 * 61 selected distances

     #   Z          #   Z                                           value/Å
     1   6          2   6                                         1.5238248
     2   6          3   6                                         1.5266998 (max)
     3   6          4   6                                         1.5264437
     4   6          5   6                                         1.5265517
     5   6          6   6                                         1.5264594
     6   6          7   6                                         1.5264145
     7   6          8   6                                         1.5263936
     8   6          9   6                                         1.5263510
     9   6         10   6                                         1.5263503
    10   6         11   6                                         1.5263347
    11   6         12   6                                         1.5263501
    12   6         13   6                                         1.5263512
    13   6         14   6                                         1.5263936
    14   6         15   6                                         1.5264143
    15   6         16   6                                         1.5264594
    16   6         17   6                                         1.5265517
    17   6         18   6                                         1.5264437
    18   6         19   6                                         1.5266997
    19   6         20   6                                         1.5238249
     1   6         21   1                                         1.0875768
     1   6         22   1                                         1.0879391
     1   6         23   1                                         1.0879393
     2   6         24   1                                         1.0924686
     2   6         25   1                                         1.0924691
     3   6         26   1                                         1.0927000
     3   6         27   1                                         1.0926988
     4   6         28   1                                         1.0927318
     4   6         29   1                                         1.0927333
     5   6         30   1                                         1.0926688
     5   6         31   1                                         1.0926666
     6   6         32   1                                         1.0926557
     6   6         33   1                                         1.0926583
     7   6         34   1                                         1.0926467
     7   6         35   1                                         1.0926435
     8   6         36   1                                         1.0926438
     8   6         37   1                                         1.0926471
     9   6         38   1                                         1.0926431
     9   6         39   1                                         1.0926400
    10   6         40   1                                         1.0926410
    10   6         41   1                                         1.0926440
    11   6         42   1                                         1.0926438
    11   6         43   1                                         1.0926413
    12   6         44   1                                         1.0926405
    12   6         45   1                                         1.0926427
    13   6         46   1                                         1.0926462
    13   6         47   1                                         1.0926446
    14   6         48   1                                         1.0926445
    14   6         49   1                                         1.0926458
    15   6         50   1                                         1.0926574
    15   6         51   1                                         1.0926566
    16   6         52   1                                         1.0926674
    16   6         53   1                                         1.0926681
    17   6         54   1                                         1.0927328
    17   6         55   1                                         1.0927323
    18   6         56   1                                         1.0926993
    18   6         57   1                                         1.0926995
    19   6         58   1                                         1.0924689
    19   6         59   1                                         1.0924688
    20   6         60   1                                         1.0879392
    20   6         61   1                                         1.0875768 (min)
    20   6         62   1                                         1.0879391

 * 2 distinct bonds (by element types)

   Z      Z             #   av. dist./Å        max./Å        min./Å
   1 H    6 C          42     1.0919550     1.0927333     1.0875768
   6 C    6 C          19     1.5261743     1.5266998     1.5238248


optimized geometry written to: xtbopt.xyz


           -------------------------------------------------
          | TOTAL ENERGY              -64.295523177562 Eh   |
Note: The following floating-point exceptions are signalling: IEEE_UNDERFLOW_FLAG
normal termination of xtb
          | GRADIENT NORM               0.000294618953 Eh/α |
          | HOMO-LUMO GAP              11.729914287437 eV   |
           -------------------------------------------------

------------------------------------------------------------------------
 * finished run on 2026/08/28 at 19:10:21.996     
------------------------------------------------------------------------
 total:
 * wall-time:     0 d,  0 h,  0 min,  0.728 sec
 *  cpu-time:     0 d,  0 h,  0 min,  0.651 sec
 * ratio c/w:     0.895 speedup
 SCF:
 * wall-time:     0 d,  0 h,  0 min,  0.127 sec
 *  cpu-time:     0 d,  0 h,  0 min,  0.098 sec
 * ratio c/w:     0.766 speedup
 ANC optimizer:
 * wall-time:     0 d,  0 h,  0 min,  0.553 sec
 *  cpu-time:     0 d,  0 h,  0 min,  0.542 sec
 * ratio c/w:     0.980 speedup

