      -----------------------------------------------------------      
     |                   =====================                   |     
     |                           x T B                           |     
     |                   =====================                   |     
     |                         S. Grimme                         |     
     |          Mulliken Center for Theoretical Chemistry        |     
     |                    University of Bonn                     |     
      -----------------------------------------------------------      

   * xtb version 6.7.1 (unknown) compiled by 'root@buildkitsandbox' on 2026-08-28

   xtb is free software: you can redistribute it and/or modify it under
   the terms of the GNU Lesser General Public License as published by
   the Free Software Foundation, either version 3 of the License, or
   (at your option) any later version.
   
   xtb is distributed in the hope that it will be useful,
   but WITHOUT ANY WARRANTY; without even the implied warranty of
   MERCHANTABILITY or FITNESS FOR A PARTICULAR PURPOSE.  See the
   GNU Lesser General Public License for more details.
   
   Cite this work as:
   * C. Bannwarth, E. Caldeweyher, S. Ehlert, A. Hansen, P. Pracht,
     J. Seibert, S. Spicher, S. Grimme, WIREs Comput. Mol. Sci., 2020, 11,
     e01493. DOI: 10.1002/wcms.1493
   
   for GFN2-xTB:
   * C. Bannwarth, S. Ehlert and S. Grimme., J. Chem. Theory Comput., 2019,
     15, 1652-1671. DOI: 10.1021/acs.jctc.8b01176
   for GFN1-xTB:
   * S. Grimme, C. Bannwarth, P. Shushkov, J. Chem. Theory Comput., 2017,
     13, 1989-2009. DOI: 10.1021/acs.jctc.7b00118
   for GFN0-xTB:
   * P. Pracht, E. Caldeweyher, S. Ehlert, S. Grimme, ChemRxiv, 2019, preprint.
     DOI: 10.26434/chemrxiv.8326202.v1
   for GFN-FF:
   * S. Spicher and S. Grimme, Angew. Chem. Int. Ed., 2020, 59, 15665-15673.
     DOI: 10.1002/anie.202004239
   
   for ALPB and GBSA implicit solvation:
   * S. Ehlert, M. Stahn, S. Spicher, S. Grimme, J. Chem. Theory Comput.,
     2021, 17, 4250-4261. DOI: 10.1021/acs.jctc.1c00471
   
   for ddCOSMO and CPCM-X implicit solvation:
   * M. Stahn, S. Ehlert, S. Grimme, J. Phys. Chem. A,
     2023, XX, XXXX-XXXX. DOI: 10.1021/acs.jpca.3c04382
   
   for DFT-D4:
   * E. Caldeweyher, C. Bannwarth and S. Grimme, J. Chem. Phys., 2017,
     147, 034112. DOI: 10.1063/1.4993215
   * E. Caldeweyher, S. Ehlert, A. Hansen, H. Neugebauer, S. Spicher,
     C. Bannwarth and S. Grimme, J. Chem. Phys., 2019, 150, 154122.
     DOI: 10.1063/1.5090222
   * E. Caldeweyher, J.-M. Mewes, S. Ehlert and S. Grimme, Phys. Chem. Chem. Phys.
     2020, 22, 8499-8512. DOI: 10.1039/D0CP00502A
   
   for sTDA-xTB:
   * S. Grimme and C. Bannwarth, J. Chem. Phys., 2016, 145, 054103.
     DOI: 10.1063/1.4959605
   
   in the mass-spec context:
   * V. Asgeirsson, C. Bauer and S. Grimme, Chem. Sci., 2017, 8, 4879.
     DOI: 10.1039/c7sc00601b
   * J. Koopman and S. Grimme, ACS Omega 2019, 4, 12, 15120-15133.
     DOI: 10.1021/acsomega.9b02011
   
   for metadynamics refer to:
   * S. Grimme, J. Chem. Theory Comput., 2019, 155, 2847-2862
     DOI: 10.1021/acs.jctc.9b00143
   
   for SPH calculations refer to:
   * S. Spicher and S. Grimme, J. Chem. Theory Comput., 2021, 17, 1701-1714
     DOI: 10.1021/acs.jctc.0c01306
   
   for ONIOM refer to:
   * C. Plett, A. Katbashev, S. Ehlert, S. Grimme, M. Bursch,
     Phys. Chem. Chem. Phys., 2023, 25, 17860-17868. DOI: 10.1039/D3CP02178E
   
   for DIPRO refer to:
   * J. Kohn, N. Gildemeister, S. Grimme, D. Fazzi, A. Hansen,
     J. Chem. Phys. 159, 144106 (2023). DOI: 10.1063/5.0167484
   
   for PTB refer to:
   * S. Grimme, M. Mueller, A. Hansen, J. Chem. Phys., 2023, 158, 124111.
     DOI: 10.1063/5.0137838
   
   with help from (in alphabetical order)
   P. Atkinson, C. Bannwarth, F. Bohle, G. Brandenburg, E. Caldeweyher,
   M. Checinski, S. Dohm, S. Ehlert, S. Ehrlich, M. Friede, T. Froitzheim,
   I. Gerasimov, C. Hölzer, A. Katbashev, J. Kohn, J. Koopman, C. Lavigne,
   S. Lehtola, F. März, M. Müller, F. Musil, H. Neugebauer, J. Pisarek,
   C. Plett, P. Pracht, F. Pultar, J. Seibert, P. Shushkov, S. Spicher,
   M. Stahn, M. Steiner, T. Strunk, J. Stückrath, T. Rose, and J. Unsleber
   
 * started run on 2026/08/28 at 19:15:04.214     
   ID    Z sym.   atoms
    1    6 C      1-20
    2    1 H      21-62

           -------------------------------------------------
          |                Calculation Setup                |
           -------------------------------------------------

          program call               : xtb opt.xyz --gfn 2 --hess --norestart
          hostname                   : 756d39058c4f
          coordinate file            : opt.xyz
          random seed                :             620154032


           -------------------------------------------------
          |                 G F N 2 - x T B                 |
           -------------------------------------------------

        Reference                      10.1021/acs.jctc.8b01176
      * Hamiltonian:
        H0-scaling (s, p, d)           1.850000    2.230000    2.230000
        zeta-weighting                 0.500000
      * Dispersion:
        s8                             2.700000
        a1                             0.520000
        a2                             5.000000
        s9                             5.000000
      * Repulsion:
        kExp                           1.500000    1.000000
        rExp                           1.000000
      * Coulomb:
        alpha                          2.000000
        third order                    shell-resolved
        anisotropic                    true
        a3                             3.000000
        a5                             4.000000
        cn-shift                       1.200000
        cn-exp                         4.000000
        max-rad                        5.000000


          ...................................................
          :                      SETUP                      :
          :.................................................:
          :  # basis functions                 122          :
          :  # atomic orbitals                 122          :
          :  # shells                           82          :
          :  # electrons                       122          :
          :  max. iterations                   250          :
          :  Hamiltonian                  GFN2-xTB          :
          :  restarted?                      false          :
          :  GBSA solvation                  false          :
          :  PC potential                    false          :
          :  electronic temp.          300.0000000     K    :
          :  accuracy                    1.0000000          :
          :  -> integral cutoff          0.2500000E+02      :
          :  -> integral neglect         0.1000000E-07      :
          :  -> SCF convergence          0.1000000E-05 Eh   :
          :  -> wf. convergence          0.1000000E-03 e    :
          :  Broyden damping             0.4000000          :
          :  net charge                          0          :
          :  unpaired electrons                  0          :
          ...................................................

 iter      E             dE          RMSdq      gap      omega  full diag
   1    -65.0908824 -0.650909E+02  0.262E+00   11.61       0.0  T
   2    -65.2505635 -0.159681E+00  0.147E+00   11.68       1.0  T
   3    -65.2530795 -0.251601E-02  0.752E-01   11.71       1.0  T
   4    -65.2535132 -0.433704E-03  0.808E-02   11.73       1.0  T
   5    -65.2535196 -0.637104E-05  0.386E-02   11.73       1.0  T
   6    -65.2535232 -0.360003E-05  0.179E-03   11.73       7.1  T
   7    -65.2535233 -0.611097E-07  0.668E-04   11.73      19.0  T
   8    -65.2535233 -0.209411E-08  0.326E-04   11.73      38.9  T

   *** convergence criteria satisfied after 8 iterations ***

         #    Occupation            Energy/Eh            Energy/eV
      -------------------------------------------------------------
         1        2.0000           -0.6235804             -16.9685
       ...           ...                  ...                  ...
        55        2.0000           -0.4180702             -11.3763
        56        2.0000           -0.4167450             -11.3402
        57        2.0000           -0.4166745             -11.3383
        58        2.0000           -0.4163452             -11.3293
        59        2.0000           -0.4162500             -11.3267
        60        2.0000           -0.4152556             -11.2997
        61        2.0000           -0.4052344             -11.0270 (HOMO)
        62                          0.0258322               0.7029 (LUMO)
        63                          0.0447856               1.2187
        64                          0.0733125               1.9949
        65                          0.0984029               2.6777
        66                          0.1044061               2.8410
       ...                                ...                  ...
       122                          0.3284940               8.9388
      -------------------------------------------------------------
                  HL-Gap            0.4310666 Eh           11.7299 eV
             Fermi-level           -0.1897011 Eh           -5.1620 eV

 SCC (total)                   0 d,  0 h,  0 min,  0.165 sec
 SCC setup                      ...        0 min,  0.000 sec (  0.174%)
 Dispersion                     ...        0 min,  0.001 sec (  0.664%)
 classical contributions        ...        0 min,  0.001 sec (  0.670%)
 integral evaluation            ...        0 min,  0.015 sec (  8.835%)
 iterations                     ...        0 min,  0.111 sec ( 67.150%)
 molecular gradient             ...        0 min,  0.032 sec ( 19.231%)
 printout                       ...        0 min,  0.005 sec (  3.266%)

         :::::::::::::::::::::::::::::::::::::::::::::::::::::
         ::                     SUMMARY                     ::
         :::::::::::::::::::::::::::::::::::::::::::::::::::::
         :: total energy             -64.295523177256 Eh    ::
         :: gradient norm              0.000295057057 Eh/a0 ::
         :: HOMO-LUMO gap             11.729918591485 eV    ::
         ::.................................................::
         :: SCC energy               -65.254150295986 Eh    ::
         :: -> isotropic ES            0.010298463866 Eh    ::
         :: -> anisotropic ES          0.020086205013 Eh    ::
         :: -> anisotropic XC          0.038498817032 Eh    ::
         :: -> dispersion             -0.041518185786 Eh    ::
         :: repulsion energy           0.958627118730 Eh    ::
         :: add. restraining           0.000000000000 Eh    ::
         :: total charge              -0.000000000000 e     ::
         :::::::::::::::::::::::::::::::::::::::::::::::::::::

           ------------------------------------------------- 
          |                Numerical Hessian                |
           ------------------------------------------------- 
step length          :   0.00500
SCC accuracy         :   0.30000
Hessian scale factor :   1.00000
frozen atoms in %    :   0.00000    0
RMS gradient         :   0.00029
estimated CPU  time      0.50 min
estimated wall time      0.50 min

writing file <hessian>, containing the non-mass-weighted Hessian matrix in atomic units (Eₕ/Bohr²).

 projected vibrational frequencies (cm⁻¹)
eigval :       -0.00    -0.00    -0.00     0.00     0.00     0.00
eigval :        6.70    13.30    20.22    22.99    37.20    39.03
eigval :       48.30    61.78    71.60    72.39    86.43    95.24
eigval :      110.61   113.67   116.32   118.38   132.03   134.70
eigval :      148.68   149.28   158.88   158.94   165.30   221.23
eigval :      228.07   233.86   233.86   280.83   323.66   345.09
eigval :      391.14   418.89   444.91   480.01   488.89   517.56
eigval :      519.03   768.62   768.63   769.07   769.62   772.26
eigval :      777.46   786.09   798.78   815.66   836.65   860.93
eigval :      887.33   914.84   940.83   940.89   942.22   968.28
eigval :      991.95  1012.19  1027.83  1029.26  1033.11  1037.73
eigval :     1041.94  1053.66  1059.48  1076.26  1080.66  1092.91
eigval :     1100.14  1103.89  1104.22  1105.50  1110.72  1113.31
eigval :     1114.73  1116.83  1118.00  1134.96  1138.95  1198.05
eigval :     1201.12  1208.22  1209.15  1218.70  1224.31  1231.37
eigval :     1241.08  1244.99  1258.09  1258.34  1266.52  1269.45
eigval :     1272.58  1275.12  1277.00  1282.31  1284.36  1290.77
eigval :     1291.23  1292.01  1296.82  1296.84  1300.40  1300.44
eigval :     1308.45  1324.10  1338.67  1351.36  1361.98  1370.29
eigval :     1376.03  1377.34  1378.69  1379.29  1380.09  1380.50
eigval :     1415.93  1415.94  1494.68  1494.71  1495.27  1495.43
eigval :     1496.18  1496.56  1497.38  1497.93  1498.94  1499.29
eigval :     1500.51  1500.87  1501.52  1502.03  1502.40  1503.20
eigval :     1504.72  1504.73  1505.21  1506.74  1507.95  1507.99
eigval :     2953.01  2953.03  2953.25  2953.61  2954.25  2955.17
eigval :     2956.35  2957.78  2959.42  2961.34  2963.59  2966.10
eigval :     2968.82  2971.60  2971.61  2971.65  2972.03  2972.09
eigval :     2972.97  2973.00  2974.26  2974.37  2974.50  2975.78
eigval :     2976.07  2977.30  2977.48  2977.58  2979.45  2980.20
eigval :     2981.85  2982.70  2984.46  2987.16  2989.81  2992.08
eigval :     3029.81  3029.83  3032.14  3032.14  3037.28  3037.30
           -------------------------------------------------
          |                Property Printout                |
           -------------------------------------------------

    * Orbital Energies and Occupations

         #    Occupation            Energy/Eh            Energy/eV
      -------------------------------------------------------------
         1        2.0000           -0.6235821             -16.9685
       ...           ...                  ...                  ...
        49        2.0000           -0.4302559             -11.7079
        50        2.0000           -0.4276396             -11.6367
        51        2.0000           -0.4265301             -11.6065
        52        2.0000           -0.4255886             -11.5809
        53        2.0000           -0.4249279             -11.5629
        54        2.0000           -0.4207212             -11.4484
        55        2.0000           -0.4180709             -11.3763
        56        2.0000           -0.4167454             -11.3402
        57        2.0000           -0.4166752             -11.3383
        58        2.0000           -0.4163459             -11.3293
        59        2.0000           -0.4162507             -11.3268
        60        2.0000           -0.4152570             -11.2997
        61        2.0000           -0.4052356             -11.0270 (HOMO)
        62                          0.0258309               0.7029 (LUMO)
        63                          0.0447844               1.2186
        64                          0.0733109               1.9949
        65                          0.0984026               2.6777
        66                          0.1044062               2.8410
        67                          0.1071270               2.9151
        68                          0.1117337               3.0404
        69                          0.1120705               3.0496
        70                          0.1140708               3.1040
        71                          0.1148067               3.1240
        72                          0.1148290               3.1247
       ...                                ...                  ...
       122                          0.3284936               8.9388
      -------------------------------------------------------------
                  HL-Gap            0.4310664 Eh           11.7299 eV
             Fermi-level           -0.1897024 Eh           -5.1621 eV

     #   Z          covCN         q      C6AA      α(0)
     1   6          3.752    -0.102    22.511     6.766
     2   6          3.801    -0.053    21.524     6.605
     3   6          3.803    -0.059    21.634     6.622
     4   6          3.803    -0.058    21.623     6.620
     5   6          3.803    -0.058    21.619     6.620
     6   6          3.803    -0.058    21.621     6.620
     7   6          3.803    -0.058    21.621     6.620
     8   6          3.803    -0.058    21.622     6.620
     9   6          3.803    -0.058    21.622     6.620
    10   6          3.803    -0.058    21.622     6.620
    11   6          3.803    -0.058    21.622     6.620
    12   6          3.803    -0.058    21.622     6.620
    13   6          3.803    -0.058    21.622     6.620
    14   6          3.803    -0.058    21.621     6.620
    15   6          3.803    -0.058    21.621     6.620
    16   6          3.803    -0.058    21.619     6.620
    17   6          3.803    -0.058    21.623     6.620
    18   6          3.803    -0.059    21.634     6.622
    19   6          3.801    -0.053    21.524     6.605
    20   6          3.752    -0.102    22.511     6.766
    21   1          0.925     0.033     2.550     2.497
    22   1          0.925     0.033     2.541     2.493
    23   1          0.925     0.033     2.541     2.493
    24   1          0.924     0.028     2.608     2.525
    25   1          0.924     0.028     2.608     2.525
    26   1          0.924     0.030     2.590     2.517
    27   1          0.924     0.030     2.590     2.517
    28   1          0.924     0.029     2.607     2.525
    29   1          0.924     0.029     2.607     2.525
    30   1          0.924     0.029     2.600     2.521
    31   1          0.924     0.029     2.600     2.521
    32   1          0.924     0.029     2.600     2.521
    33   1          0.924     0.029     2.600     2.521
    34   1          0.924     0.029     2.599     2.521
    35   1          0.924     0.029     2.599     2.521
    36   1          0.924     0.029     2.599     2.521
    37   1          0.924     0.029     2.598     2.521
    38   1          0.924     0.029     2.598     2.521
    39   1          0.924     0.029     2.598     2.521
    40   1          0.924     0.029     2.598     2.521
    41   1          0.924     0.029     2.598     2.521
    42   1          0.924     0.029     2.598     2.521
    43   1          0.924     0.029     2.598     2.521
    44   1          0.924     0.029     2.598     2.521
    45   1          0.924     0.029     2.598     2.521
    46   1          0.924     0.029     2.599     2.521
    47   1          0.924     0.029     2.599     2.521
    48   1          0.924     0.029     2.599     2.521
    49   1          0.924     0.029     2.599     2.521
    50   1          0.924     0.029     2.600     2.521
    51   1          0.924     0.029     2.600     2.521
    52   1          0.924     0.029     2.600     2.521
    53   1          0.924     0.029     2.600     2.521
    54   1          0.924     0.029     2.607     2.525
    55   1          0.924     0.029     2.607     2.525
    56   1          0.924     0.030     2.590     2.517
    57   1          0.924     0.030     2.590     2.517
    58   1          0.924     0.028     2.608     2.525
    59   1          0.924     0.028     2.608     2.525
    60   1          0.925     0.033     2.541     2.493
    61   1          0.925     0.033     2.550     2.497
    62   1          0.925     0.033     2.541     2.493

 Mol. C6AA /au·bohr⁶  :      25771.592818
 Mol. C8AA /au·bohr⁸  :     540404.837054
 Mol. α(0) /au        :        238.405141


Wiberg/Mayer (AO) data.
largest (>0.10) Wiberg bond orders for each atom

 ---------------------------------------------------------------------------
     #   Z sym  total        # sym  WBO       # sym  WBO       # sym  WBO
 ---------------------------------------------------------------------------
     1   6      3.997 --     2      1.019    22      0.988    23      0.988
                            21      0.988
     2   6      3.998 --     1      1.019     3      1.008    25      0.979
                            24      0.979
     3   6      3.997 --     2      1.008     4      1.007    27      0.978
                            26      0.978
     4   6      3.997 --     3      1.007     5      1.007    28      0.978
                            29      0.978
     5   6      3.997 --     4      1.007     6      1.007    31      0.978
                            30      0.978
     6   6      3.997 --     7      1.007     5      1.007    32      0.977
                            33      0.977
     7   6      3.997 --     6      1.007     8      1.007    35      0.978
                            34      0.977
     8   6      3.997 --     9      1.007     7      1.007    36      0.977
                            37      0.977
     9   6      3.997 --     8      1.007    10      1.007    39      0.977
                            38      0.977
    10   6      3.997 --    11      1.007     9      1.007    40      0.977
                            41      0.977
    11   6      3.997 --    10      1.007    12      1.007    43      0.977
                            42      0.977
    12   6      3.997 --    13      1.007    11      1.007    44      0.977
                            45      0.977
    13   6      3.997 --    12      1.007    14      1.007    47      0.977
                            46      0.977
    14   6      3.997 --    15      1.007    13      1.007    48      0.977
                            49      0.977
    15   6      3.997 --    14      1.007    16      1.007    51      0.977
                            50      0.977
    16   6      3.997 --    17      1.007    15      1.007    52      0.978
                            53      0.978
    17   6      3.997 --    18      1.007    16      1.007    55      0.978
                            54      0.978
    18   6      3.997 --    19      1.008    17      1.007    56      0.978
                            57      0.978
    19   6      3.998 --    20      1.019    18      1.008    58      0.979
                            59      0.979
    20   6      3.997 --    19      1.019    60      0.988    62      0.988
                            61      0.988
    21   1      0.999 --     1      0.988
    22   1      0.999 --     1      0.988
    23   1      0.999 --     1      0.988
    24   1      0.999 --     2      0.979
    25   1      0.999 --     2      0.979
    26   1      0.999 --     3      0.978
    27   1      0.999 --     3      0.978
    28   1      0.999 --     4      0.978
    29   1      0.999 --     4      0.978
    30   1      0.999 --     5      0.978
    31   1      0.999 --     5      0.978
    32   1      0.999 --     6      0.977
    33   1      0.999 --     6      0.977
    34   1      0.999 --     7      0.977
    35   1      0.999 --     7      0.978
    36   1      0.999 --     8      0.977
    37   1      0.999 --     8      0.977
    38   1      0.999 --     9      0.977
    39   1      0.999 --     9      0.977
    40   1      0.999 --    10      0.977
    41   1      0.999 --    10      0.977
    42   1      0.999 --    11      0.977
    43   1      0.999 --    11      0.977
    44   1      0.999 --    12      0.977
    45   1      0.999 --    12      0.977
    46   1      0.999 --    13      0.977
    47   1      0.999 --    13      0.977
    48   1      0.999 --    14      0.977
    49   1      0.999 --    14      0.977
    50   1      0.999 --    15      0.977
    51   1      0.999 --    15      0.977
    52   1      0.999 --    16      0.978
    53   1      0.999 --    16      0.978
    54   1      0.999 --    17      0.978
    55   1      0.999 --    17      0.978
    56   1      0.999 --    18      0.978
    57   1      0.999 --    18      0.978
    58   1      0.999 --    19      0.979
    59   1      0.999 --    19      0.979
    60   1      0.999 --    20      0.988
    61   1      0.999 --    20      0.988
    62   1      0.999 --    20      0.988
 ---------------------------------------------------------------------------

Topologies differ in total number of bonds
Writing topology from bond orders to xtbtopo.mol

molecular dipole:
                 x           y           z       tot (Debye)
 q only:       -0.000      -0.000      -0.000
   full:        0.000      -0.000      -0.000       0.000
molecular quadrupole (traceless):
                xx          xy          yy          xz          yz          zz
 q only:        1.433      -0.272      -1.244       0.722      -0.450      -0.189
  q+dip:       -4.003       0.916       4.943      -2.457       2.497      -0.940
   full:       -1.478       0.345       2.068      -0.928       1.127      -0.590

           -------------------------------------------------
          |               Frequency Printout                |
           -------------------------------------------------
 projected vibrational frequencies (cm⁻¹)
eigval :       -0.00    -0.00    -0.00     0.00     0.00     0.00
eigval :        6.70    13.30    20.22    22.99    37.20    39.03
eigval :       48.30    61.78    71.60    72.39    86.43    95.24
eigval :      110.61   113.67   116.32   118.38   132.03   134.70
eigval :      148.68   149.28   158.88   158.94   165.30   221.23
eigval :      228.07   233.86   233.86   280.83   323.66   345.09
eigval :      391.14   418.89   444.91   480.01   488.89   517.56
eigval :      519.03   768.62   768.63   769.07   769.62   772.26
eigval :      777.46   786.09   798.78   815.66   836.65   860.93
eigval :      887.33   914.84   940.83   940.89   942.22   968.28
eigval :      991.95  1012.19  1027.83  1029.26  1033.11  1037.73
eigval :     1041.94  1053.66  1059.48  1076.26  1080.66  1092.91
eigval :     1100.14  1103.89  1104.22  1105.50  1110.72  1113.31
eigval :     1114.73  1116.83  1118.00  1134.96  1138.95  1198.05
eigval :     1201.12  1208.22  1209.15  1218.70  1224.31  1231.37
eigval :     1241.08  1244.99  1258.09  1258.34  1266.52  1269.45
eigval :     1272.58  1275.12  1277.00  1282.31  1284.36  1290.77
eigval :     1291.23  1292.01  1296.82  1296.84  1300.40  1300.44
eigval :     1308.45  1324.10  1338.67  1351.36  1361.98  1370.29
eigval :     1376.03  1377.34  1378.69  1379.29  1380.09  1380.50
eigval :     1415.93  1415.94  1494.68  1494.71  1495.27  1495.43
eigval :     1496.18  1496.56  1497.38  1497.93  1498.94  1499.29
eigval :     1500.51  1500.87  1501.52  1502.03  1502.40  1503.20
eigval :     1504.72  1504.73  1505.21  1506.74  1507.95  1507.99
eigval :     2953.01  2953.03  2953.25  2953.61  2954.25  2955.17
eigval :     2956.35  2957.78  2959.42  2961.34  2963.59  2966.10
eigval :     2968.82  2971.60  2971.61  2971.65  2972.03  2972.09
eigval :     2972.97  2973.00  2974.26  2974.37  2974.50  2975.78
eigval :     2976.07  2977.30  2977.48  2977.58  2979.45  2980.20
eigval :     2981.85  2982.70  2984.46  2987.16  2989.81  2992.08
eigval :     3029.81  3029.83  3032.14  3032.14  3037.28  3037.30
 reduced masses (amu)
    1:      2.51    2:      3.96    3:      3.91    4:      3.84    5:      2.56    6:      4.31
    7:      4.07    8:      4.08    9:      3.84   10:      1.51   11:      3.94   12:      3.52
   13:      1.56   14:      3.13   15:      3.79   16:      1.61   17:      2.81   18:      1.65
   19:      2.57   20:      3.79   21:      1.70   22:      4.21   23:      2.36   24:      1.78
   25:      2.19   26:      1.88   27:      1.98   28:      2.07   29:      3.51   30:      3.38
   31:      4.22   32:      1.12   33:      1.12   34:      3.28   35:      3.71   36:      3.39
   37:      3.16   38:      3.63   39:      3.06   40:      3.41   41:      3.06   42:      3.22
   43:      3.11   44:      1.06   45:      1.06   46:      1.05   47:      1.07   48:      1.08
   49:      1.09   50:      1.11   51:      1.13   52:      1.16   53:      1.18   54:      1.20
   55:      1.21   56:      1.21   57:      1.74   58:      1.74   59:      1.20   60:      1.18
   61:      1.14   62:      1.10   63:      1.06   64:      5.86   65:      5.27   66:      1.02
   67:      5.24   68:      4.31   69:      4.44   70:      4.29   71:      3.38   72:      3.71
   73:      2.07   74:      2.79   75:      2.16   76:      3.11   77:      2.30   78:      2.42
   79:      2.94   80:      2.64   81:      2.62   82:      2.50   83:      3.09   84:      2.03
   85:      1.91   86:      1.76   87:      1.21   88:      1.61   89:      1.26   90:      1.49
   91:      1.27   92:      1.40   93:      1.27   94:      1.32   95:      1.01   96:      1.14
   97:      1.11   98:      1.27   99:      1.06  100:      1.18  101:      1.06  102:      1.16
  103:      1.08  104:      1.28  105:      1.10  106:      1.14  107:      1.12  108:      1.12
  109:      1.29  110:      1.31  111:      1.34  112:      1.37  113:      1.41  114:      1.46
  115:      1.51  116:      1.74  117:      1.71  118:      1.58  119:      1.66  120:      1.62
  121:      1.23  122:      1.23  123:      1.09  124:      1.09  125:      1.09  126:      1.09
  127:      1.09  128:      1.09  129:      1.09  130:      1.10  131:      1.08  132:      1.10
  133:      1.10  134:      1.08  135:      1.10  136:      1.11  137:      1.11  138:      1.08
  139:      1.05  140:      1.05  141:      1.07  142:      1.07  143:      1.06  144:      1.06
  145:      1.09  146:      1.09  147:      1.09  148:      1.09  149:      1.09  150:      1.09
  151:      1.09  152:      1.10  153:      1.10  154:      1.10  155:      1.10  156:      1.10
  157:      1.10  158:      1.05  159:      1.05  160:      1.10  161:      1.05  162:      1.05
  163:      1.05  164:      1.05  165:      1.05  166:      1.05  167:      1.10  168:      1.05
  169:      1.05  170:      1.10  171:      1.05  172:      1.04  173:      1.05  174:      1.11
  175:      1.05  176:      1.11  177:      1.05  178:      1.05  179:      1.05  180:      1.05
  181:      1.09  182:      1.09  183:      1.09  184:      1.09  185:      1.03  186:      1.03
 IR intensities (km·mol⁻¹)
    1:      0.00    2:      0.01    3:      0.01    4:      0.03    5:      0.00    6:      0.00
    7:      0.00    8:      0.00    9:      0.00   10:      0.00   11:      0.00   12:      0.00
   13:      0.00   14:      0.00   15:      0.02   16:      0.00   17:      0.00   18:      0.00
   19:      0.00   20:      0.00   21:      0.00   22:      0.00   23:      0.00   24:      0.00
   25:      0.00   26:      0.00   27:      0.00   28:      0.00   29:      0.05   30:      0.00
   31:      0.02   32:      0.00   33:      0.00   34:      0.08   35:      0.00   36:      0.00
   37:      0.14   38:      0.04   39:      0.00   40:      0.00   41:      0.10   42:      0.01
   43:      0.00   44:      1.39   45:      0.00   46:     40.25   47:      0.00   48:      3.48
   49:      0.00   50:      1.70   51:      0.00   52:      1.23   53:      0.00   54:      0.99
   55:      0.00   56:      0.74   57:      7.09   58:      0.00   59:      0.00   60:      0.45
   61:      0.00   62:      0.16   63:      0.00   64:      0.00   65:      0.30   66:      0.01
   67:      0.10   68:      0.00   69:      0.00   70:      0.31   71:      1.30   72:      0.00
   73:      0.00   74:      0.00   75:      0.03   76:      0.09   77:      0.00   78:      0.05
   79:      0.00   80:      0.03   81:      0.00   82:      8.64   83:      0.00   84:      0.00
   85:      0.28   86:      0.00   87:      4.18   88:      0.27   89:      0.00   90:      0.00
   91:      0.18   92:      0.14   93:      0.00   94:      0.00   95:      0.00   96:      0.00
   97:      0.06   98:      0.39   99:      0.00  100:      0.00  101:      0.04  102:      0.01
  103:      0.00  104:      0.00  105:      0.02  106:      0.00  107:      0.00  108:      0.00
  109:      0.51  110:      0.00  111:      0.53  112:      0.00  113:      0.46  114:      0.00
  115:      0.37  116:      0.00  117:      0.07  118:      0.00  119:      0.00  120:      0.17
  121:      0.00  122:      1.70  123:      0.00  124:      0.00  125:      0.07  126:      0.00
  127:      0.00  128:      0.01  129:      0.19  130:      0.00  131:      0.00  132:      0.07
  133:      0.00  134:      0.05  135:      0.14  136:      0.00  137:      0.30  138:      0.00
  139:      4.83  140:      0.00  141:      0.01  142:      0.00  143:      2.57  144:      0.00
  145:      0.02  146:      0.00  147:      0.00  148:      0.02  149:      0.00  150:      0.04
  151:      0.00  152:      0.11  153:      0.00  154:      0.35  155:      0.00  156:      1.86
  157:      0.00  158:      0.04  159:      0.02  160:     12.12  161:      0.00  162:      0.11
  163:      0.01  164:      0.00  165:      0.29  166:      0.00  167:      0.00  168:      0.00
Refinement of some symmetry elements was terminated before convergence was reached.
Some symmetry elements may remain unidentified.
Molecule has the following symmetry elements: (i) (C2) (sigma) 
It seems to be the C2h point group
  169:      0.33  170:     64.72  171:      0.18  172:      0.04  173:      0.00  174:      0.00
  175:      8.53  176:    838.36  177:      0.00  178:     60.53  179:      0.00  180:    654.99
  181:    129.08  182:      0.02  183:    124.41  184:      0.52  185:     68.31  186:      0.00
 Raman intensities (Ä⁴*amu⁻¹)
    1:      0.00    2:      0.00    3:      0.00    4:      0.00    5:      0.00    6:      0.00
    7:      0.00    8:      0.00    9:      0.00   10:      0.00   11:      0.00   12:      0.00
   13:      0.00   14:      0.00   15:      0.00   16:      0.00   17:      0.00   18:      0.00
   19:      0.00   20:      0.00   21:      0.00   22:      0.00   23:      0.00   24:      0.00
   25:      0.00   26:      0.00   27:      0.00   28:      0.00   29:      0.00   30:      0.00
   31:      0.00   32:      0.00   33:      0.00   34:      0.00   35:      0.00   36:      0.00
   37:      0.00   38:      0.00   39:      0.00   40:      0.00   41:      0.00   42:      0.00
   43:      0.00   44:      0.00   45:      0.00   46:      0.00   47:      0.00   48:      0.00
   49:      0.00   50:      0.00   51:      0.00   52:      0.00   53:      0.00   54:      0.00
   55:      0.00   56:      0.00   57:      0.00   58:      0.00   59:      0.00   60:      0.00
   61:      0.00   62:      0.00   63:      0.00   64:      0.00   65:      0.00   66:      0.00
   67:      0.00   68:      0.00   69:      0.00   70:      0.00   71:      0.00   72:      0.00
   73:      0.00   74:      0.00   75:      0.00   76:      0.00   77:      0.00   78:      0.00
   79:      0.00   80:      0.00   81:      0.00   82:      0.00   83:      0.00   84:      0.00
   85:      0.00   86:      0.00   87:      0.00   88:      0.00   89:      0.00   90:      0.00
   91:      0.00   92:      0.00   93:      0.00   94:      0.00   95:      0.00   96:      0.00
   97:      0.00   98:      0.00   99:      0.00  100:      0.00  101:      0.00  102:      0.00
  103:      0.00  104:      0.00  105:      0.00  106:      0.00  107:      0.00  108:      0.00
  109:      0.00  110:      0.00  111:      0.00  112:      0.00  113:      0.00  114:      0.00
  115:      0.00  116:      0.00  117:      0.00  118:      0.00  119:      0.00  120:      0.00
  121:      0.00  122:      0.00  123:      0.00  124:      0.00  125:      0.00  126:      0.00
  127:      0.00  128:      0.00  129:      0.00  130:      0.00  131:      0.00  132:      0.00
  133:      0.00  134:      0.00  135:      0.00  136:      0.00  137:      0.00  138:      0.00
  139:      0.00  140:      0.00  141:      0.00  142:      0.00  143:      0.00  144:      0.00
  145:      0.00  146:      0.00  147:      0.00  148:      0.00  149:      0.00  150:      0.00
  151:      0.00  152:      0.00  153:      0.00  154:      0.00  155:      0.00  156:      0.00
  157:      0.00  158:      0.00  159:      0.00  160:      0.00  161:      0.00  162:      0.00
  163:      0.00  164:      0.00  165:      0.00  166:      0.00  167:      0.00  168:      0.00
  169:      0.00  170:      0.00  171:      0.00  172:      0.00  173:      0.00  174:      0.00
  175:      0.00  176:      0.00  177:      0.00  178:      0.00  179:      0.00  180:      0.00
  181:      0.00  182:      0.00  183:      0.00  184:      0.00  185:      0.00  186:      0.00
 output can be read by thermo (or use thermo option).
 writing <g98.out> molden fake output.
 recommended (thermochemical) frequency scaling factor: 1.0
           -------------------------------------------------
          |             Thermodynamic Functions             |
           -------------------------------------------------

c2h symmetry found (for desy threshold:  0.10E+00) used in thermo

          ...................................................
          :                      SETUP                      :
          :.................................................:
          :  # frequencies                         180      :
          :  # imaginary freq.                       0      :
          :  linear?                             false      :
          :  only rotor calc.                    false      :
          :  symmetry                              c2h      :
          :  rotational number                       2      :
          :  scaling factor                  1.0000000      :
          :  rotor cutoff                   50.0000000 cm⁻¹ :
          :  imag. cutoff                  -20.0000000 cm⁻¹ :
          :.................................................:

    mode    ω/cm⁻¹     T·S(HO)/kcal·mol⁻¹    T·S(FR)/kcal·mol⁻¹   T·S(vib)
   ------------------------------------------------------------------------
       1      6.70    -2.62562 (  0.03%)    -1.65184 ( 99.97%)    -1.65215
       2     13.30    -2.21976 (  0.50%)    -1.44891 ( 99.50%)    -1.45274
       3     20.22    -1.97148 (  2.61%)    -1.32472 ( 97.39%)    -1.34157
       4     22.99    -1.89544 (  4.28%)    -1.28666 ( 95.72%)    -1.31272
       5     37.20    -1.61084 ( 23.46%)    -1.14412 ( 76.54%)    -1.25360
       6     39.03    -1.58256 ( 27.07%)    -1.12995 ( 72.93%)    -1.25246
       7     48.30    -1.45669 ( 46.55%)    -1.06678 ( 53.45%)    -1.24828
       8     61.78    -1.31166 ( 69.98%)    -0.99385 ( 30.02%)    -1.21627
       9     71.60    -1.22504 ( 80.79%)    -0.95016 ( 19.21%)    -1.17224
      10     72.39    -1.21863 ( 81.46%)    -0.94692 ( 18.54%)    -1.16825
      11     86.43    -1.11486 ( 89.93%)    -0.89440 ( 10.07%)    -1.09266
      12     95.24    -1.05826 ( 92.94%)    -0.86565 (  7.06%)    -1.04466
      13    110.61    -0.97141 ( 95.99%)    -0.82133 (  4.01%)    -0.96540
      14    113.67    -0.95567 ( 96.39%)    -0.81326 (  3.61%)    -0.95053
      15    116.32    -0.94234 ( 96.70%)    -0.80642 (  3.30%)    -0.93785
      16    118.38    -0.93219 ( 96.92%)    -0.80121 (  3.08%)    -0.92816
      17    132.03    -0.86947 ( 97.98%)    -0.76889 (  2.02%)    -0.86744
      18    134.70    -0.85803 ( 98.14%)    -0.76297 (  1.86%)    -0.85626
      19    148.68    -0.80173 ( 98.74%)    -0.73371 (  1.26%)    -0.80087
      20    149.28    -0.79944 ( 98.76%)    -0.73251 (  1.24%)    -0.79861
      21    158.88    -0.76419 ( 99.03%)    -0.71406 (  0.97%)    -0.76370
      22    158.94    -0.76396 ( 99.03%)    -0.71394 (  0.97%)    -0.76347
      23    165.30    -0.74187 ( 99.17%)    -0.70232 (  0.83%)    -0.74155
      24    221.23    -0.58110 ( 99.74%)    -0.61598 (  0.26%)    -0.58119
      25    228.07    -0.56473 ( 99.77%)    -0.60697 (  0.23%)    -0.56483
      26    233.86    -0.55132 ( 99.79%)    -0.59954 (  0.21%)    -0.55142
      27    233.86    -0.55131 ( 99.79%)    -0.59954 (  0.21%)    -0.55141
      28    280.83    -0.45576 ( 99.90%)    -0.54532 (  0.10%)    -0.45585
   ------------------------------------------------------------------------

   temp. (K)  partition function   enthalpy   heat capacity  entropy
                                   cal/mol     cal/K/mol   cal/K/mol   J/K/mol
 298.15  VIB  0.416E+15            15583.152     83.740    105.378
         ROT  0.645E+07              888.727      2.981     34.138
         INT  0.268E+22            16471.880     86.720    139.516
         TR   0.145E+27             1481.212      4.968     42.814
         TOT                       17953.0921    91.6883   182.3303   762.8698

       T/K    H(0)-H(T)+PV         H(T)/Eh          T*S/Eh         G(T)/Eh
   ------------------------------------------------------------------------
    298.15    0.286101E-01    0.609843E+00    0.866310E-01    0.523212E+00
   ------------------------------------------------------------------------

         :::::::::::::::::::::::::::::::::::::::::::::::::::::
         ::                  THERMODYNAMIC                  ::
         :::::::::::::::::::::::::::::::::::::::::::::::::::::
         :: total free energy         -63.772311015968 Eh   ::
         ::.................................................::
         :: total energy              -64.295523177561 Eh   ::
         :: zero point energy           0.581233073877 Eh   ::
         :: G(RRHO) w/o ZPVE           -0.058020912283 Eh   ::
         :: G(RRHO) contrib.            0.523212161594 Eh   ::
Note: The following floating-point exceptions are signalling: IEEE_UNDERFLOW_FLAG
normal termination of xtb
         :::::::::::::::::::::::::::::::::::::::::::::::::::::

           -------------------------------------------------
          | TOTAL ENERGY              -64.295523177561 Eh   |
          | TOTAL ENTHALPY            -63.685680030353 Eh   |
          | TOTAL FREE ENERGY         -63.772311015968 Eh   |
          | GRADIENT NORM               0.000294634176 Eh/α |
          | HOMO-LUMO GAP              11.729914435006 eV   |
           -------------------------------------------------

------------------------------------------------------------------------
 * finished run on 2026/08/28 at 19:15:33.226     
------------------------------------------------------------------------
 total:
 * wall-time:     0 d,  0 h,  0 min, 29.012 sec
 *  cpu-time:     0 d,  0 h,  0 min, 28.833 sec
 * ratio c/w:     0.994 speedup
 SCF:
 * wall-time:     0 d,  0 h,  0 min,  0.165 sec
 *  cpu-time:     0 d,  0 h,  0 min,  0.107 sec
 * ratio c/w:     0.651 speedup
 analytical hessian:
 * wall-time:     0 d,  0 h,  0 min, 28.671 sec
 *  cpu-time:     0 d,  0 h,  0 min, 28.632 sec
 * ratio c/w:     0.999 speedup

