      -----------------------------------------------------------      
     |                   =====================                   |     
     |                           x T B                           |     
     |                   =====================                   |     
     |                         S. Grimme                         |     
     |          Mulliken Center for Theoretical Chemistry        |     
     |                    University of Bonn                     |     
      -----------------------------------------------------------      

   * xtb version 6.7.1 (unknown) compiled by 'root@buildkitsandbox' on 2026-08-28

   xtb is free software: you can redistribute it and/or modify it under
   the terms of the GNU Lesser General Public License as published by
   the Free Software Foundation, either version 3 of the License, or
   (at your option) any later version.
   
   xtb is distributed in the hope that it will be useful,
   but WITHOUT ANY WARRANTY; without even the implied warranty of
   MERCHANTABILITY or FITNESS FOR A PARTICULAR PURPOSE.  See the
   GNU Lesser General Public License for more details.
   
   Cite this work as:
   * C. Bannwarth, E. Caldeweyher, S. Ehlert, A. Hansen, P. Pracht,
     J. Seibert, S. Spicher, S. Grimme, WIREs Comput. Mol. Sci., 2020, 11,
     e01493. DOI: 10.1002/wcms.1493
   
   for GFN2-xTB:
   * C. Bannwarth, S. Ehlert and S. Grimme., J. Chem. Theory Comput., 2019,
     15, 1652-1671. DOI: 10.1021/acs.jctc.8b01176
   for GFN1-xTB:
   * S. Grimme, C. Bannwarth, P. Shushkov, J. Chem. Theory Comput., 2017,
     13, 1989-2009. DOI: 10.1021/acs.jctc.7b00118
   for GFN0-xTB:
   * P. Pracht, E. Caldeweyher, S. Ehlert, S. Grimme, ChemRxiv, 2019, preprint.
     DOI: 10.26434/chemrxiv.8326202.v1
   for GFN-FF:
   * S. Spicher and S. Grimme, Angew. Chem. Int. Ed., 2020, 59, 15665-15673.
     DOI: 10.1002/anie.202004239
   
   for ALPB and GBSA implicit solvation:
   * S. Ehlert, M. Stahn, S. Spicher, S. Grimme, J. Chem. Theory Comput.,
     2021, 17, 4250-4261. DOI: 10.1021/acs.jctc.1c00471
   
   for ddCOSMO and CPCM-X implicit solvation:
   * M. Stahn, S. Ehlert, S. Grimme, J. Phys. Chem. A,
     2023, XX, XXXX-XXXX. DOI: 10.1021/acs.jpca.3c04382
   
   for DFT-D4:
   * E. Caldeweyher, C. Bannwarth and S. Grimme, J. Chem. Phys., 2017,
     147, 034112. DOI: 10.1063/1.4993215
   * E. Caldeweyher, S. Ehlert, A. Hansen, H. Neugebauer, S. Spicher,
     C. Bannwarth and S. Grimme, J. Chem. Phys., 2019, 150, 154122.
     DOI: 10.1063/1.5090222
   * E. Caldeweyher, J.-M. Mewes, S. Ehlert and S. Grimme, Phys. Chem. Chem. Phys.
     2020, 22, 8499-8512. DOI: 10.1039/D0CP00502A
   
   for sTDA-xTB:
   * S. Grimme and C. Bannwarth, J. Chem. Phys., 2016, 145, 054103.
     DOI: 10.1063/1.4959605
   
   in the mass-spec context:
   * V. Asgeirsson, C. Bauer and S. Grimme, Chem. Sci., 2017, 8, 4879.
     DOI: 10.1039/c7sc00601b
   * J. Koopman and S. Grimme, ACS Omega 2019, 4, 12, 15120-15133.
     DOI: 10.1021/acsomega.9b02011
   
   for metadynamics refer to:
   * S. Grimme, J. Chem. Theory Comput., 2019, 155, 2847-2862
     DOI: 10.1021/acs.jctc.9b00143
   
   for SPH calculations refer to:
   * S. Spicher and S. Grimme, J. Chem. Theory Comput., 2021, 17, 1701-1714
     DOI: 10.1021/acs.jctc.0c01306
   
   for ONIOM refer to:
   * C. Plett, A. Katbashev, S. Ehlert, S. Grimme, M. Bursch,
     Phys. Chem. Chem. Phys., 2023, 25, 17860-17868. DOI: 10.1039/D3CP02178E
   
   for DIPRO refer to:
   * J. Kohn, N. Gildemeister, S. Grimme, D. Fazzi, A. Hansen,
     J. Chem. Phys. 159, 144106 (2023). DOI: 10.1063/5.0167484
   
   for PTB refer to:
   * S. Grimme, M. Mueller, A. Hansen, J. Chem. Phys., 2023, 158, 124111.
     DOI: 10.1063/5.0137838
   
   with help from (in alphabetical order)
   P. Atkinson, C. Bannwarth, F. Bohle, G. Brandenburg, E. Caldeweyher,
   M. Checinski, S. Dohm, S. Ehlert, S. Ehrlich, M. Friede, T. Froitzheim,
   I. Gerasimov, C. Hölzer, A. Katbashev, J. Kohn, J. Koopman, C. Lavigne,
   S. Lehtola, F. März, M. Müller, F. Musil, H. Neugebauer, J. Pisarek,
   C. Plett, P. Pracht, F. Pultar, J. Seibert, P. Shushkov, S. Spicher,
   M. Stahn, M. Steiner, T. Strunk, J. Stückrath, T. Rose, and J. Unsleber
   
 * started run on 2026/08/28 at 19:10:19.860     
   ID    Z sym.   atoms
    1    6 C      1-16
    2    1 H      17-50

           -------------------------------------------------
          |                Calculation Setup                |
           -------------------------------------------------

          program call               : xtb in.xyz --gfn 2 --opt --norestart
          hostname                   : 756d39058c4f
          coordinate file            : in.xyz
          random seed                :            2142235982


           -------------------------------------------------
          |                 G F N 2 - x T B                 |
           -------------------------------------------------

        Reference                      10.1021/acs.jctc.8b01176
      * Hamiltonian:
        H0-scaling (s, p, d)           1.850000    2.230000    2.230000
        zeta-weighting                 0.500000
      * Dispersion:
        s8                             2.700000
        a1                             0.520000
        a2                             5.000000
        s9                             5.000000
      * Repulsion:
        kExp                           1.500000    1.000000
        rExp                           1.000000
      * Coulomb:
        alpha                          2.000000
        third order                    shell-resolved
        anisotropic                    true
        a3                             3.000000
        a5                             4.000000
        cn-shift                       1.200000
        cn-exp                         4.000000
        max-rad                        5.000000


          ...................................................
          :                      SETUP                      :
          :.................................................:
          :  # basis functions                  98          :
          :  # atomic orbitals                  98          :
          :  # shells                           66          :
          :  # electrons                        98          :
          :  max. iterations                   250          :
          :  Hamiltonian                  GFN2-xTB          :
          :  restarted?                      false          :
          :  GBSA solvation                  false          :
          :  PC potential                    false          :
          :  electronic temp.          300.0000000     K    :
          :  accuracy                    1.0000000          :
          :  -> integral cutoff          0.2500000E+02      :
          :  -> integral neglect         0.1000000E-07      :
          :  -> SCF convergence          0.1000000E-05 Eh   :
          :  -> wf. convergence          0.1000000E-03 e    :
          :  Broyden damping             0.4000000          :
          :  net charge                          0          :
          :  unpaired electrons                  0          :
          ...................................................

 iter      E             dE          RMSdq      gap      omega  full diag
   1    -52.2510653 -0.522511E+02  0.266E+00   11.79       0.0  T
   2    -52.3835147 -0.132449E+00  0.150E+00   11.86       1.0  T
   3    -52.3854083 -0.189360E-02  0.769E-01   11.89       1.0  T
   4    -52.3857727 -0.364445E-03  0.833E-02   11.91       1.0  T
   5    -52.3857787 -0.598809E-05  0.405E-02   11.91       1.0  T
   6    -52.3857817 -0.299456E-05  0.197E-03   11.91       7.2  T
   7    -52.3857818 -0.536575E-07  0.769E-04   11.91      18.4  T
   8    -52.3857818 -0.188432E-08  0.349E-04   11.91      40.5  T

   *** convergence criteria satisfied after 8 iterations ***

         #    Occupation            Energy/Eh            Energy/eV
      -------------------------------------------------------------
         1        2.0000           -0.6226831             -16.9441
       ...           ...                  ...                  ...
        43        2.0000           -0.4213100             -11.4644
        44        2.0000           -0.4184181             -11.3857
        45        2.0000           -0.4180811             -11.3766
        46        2.0000           -0.4171600             -11.3515
        47        2.0000           -0.4166944             -11.3388
        48        2.0000           -0.4166751             -11.3383
        49        2.0000           -0.4041982             -10.9988 (HOMO)
        50                          0.0334230               0.9095 (LUMO)
        51                          0.0604957               1.6462
        52                          0.0920593               2.5051
        53                          0.0987576               2.6873
        54                          0.1010181               2.7488
       ...                                ...                  ...
        98                          0.3194518               8.6927
      -------------------------------------------------------------
                  HL-Gap            0.4376212 Eh           11.9083 eV
             Fermi-level           -0.1853876 Eh           -5.0447 eV

 SCC (total)                   0 d,  0 h,  0 min,  0.076 sec
 SCC setup                      ...        0 min,  0.000 sec (  0.180%)
 Dispersion                     ...        0 min,  0.001 sec (  0.677%)
 classical contributions        ...        0 min,  0.000 sec (  0.085%)
 integral evaluation            ...        0 min,  0.010 sec ( 12.687%)
 iterations                     ...        0 min,  0.040 sec ( 53.326%)
 molecular gradient             ...        0 min,  0.024 sec ( 32.020%)
 printout                       ...        0 min,  0.001 sec (  1.002%)

         :::::::::::::::::::::::::::::::::::::::::::::::::::::
         ::                     SUMMARY                     ::
         :::::::::::::::::::::::::::::::::::::::::::::::::::::
         :: total energy             -51.636811629032 Eh    ::
         :: gradient norm              0.022312670962 Eh/a0 ::
         :: HOMO-LUMO gap             11.908277955499 eV    ::
         ::.................................................::
         :: SCC energy               -52.386223643159 Eh    ::
         :: -> isotropic ES            0.008245231745 Eh    ::
         :: -> anisotropic ES          0.017144249087 Eh    ::
         :: -> anisotropic XC          0.032225324336 Eh    ::
         :: -> dispersion             -0.032653316571 Eh    ::
         :: repulsion energy           0.749412014128 Eh    ::
         :: add. restraining           0.000000000000 Eh    ::
         :: total charge               0.000000000000 e     ::
         :::::::::::::::::::::::::::::::::::::::::::::::::::::

      ----------------------------------------------------------- 
     |                   =====================                   |
     |                        A N C O P T                        |
     |                   =====================                   |
     |               Approximate Normal Coordinate               |
     |                Rational Function Optimizer                |
      ----------------------------------------------------------- 

          ...................................................
          :                      SETUP                      :
          :.................................................:
          :   optimization level            normal          :
          :   max. optcycles                   200          :
          :   ANC micro-cycles                  20          :
          :   degrees of freedom               144          :
          :.................................................:
          :   RF solver                   davidson          :
          :   write xtbopt.log                true          :
          :   linear?                        false          :
          :   energy convergence         0.5000000E-05 Eh   :
          :   grad. convergence          0.1000000E-02 Eh/α :
          :   maximum RF displ.          1.0000000          :
          :   Hlow (freq-cutoff)         0.1000000E-01      :
          :   Hmax (freq-cutoff)         5.0000000          :
          :   S6 in model hess.         20.0000000          :
          ...................................................

generating ANC from exact Hessian ...
Using Lindh-Hessian (1995)
 Shifting diagonal of input Hessian by    9.9001052708250527E-003
 Lowest  eigenvalues of input Hessian
    0.000000    0.000000    0.000000    0.000000    0.000000    0.000000
    0.010000    0.010029    0.010376    0.010560    0.011049    0.011314
    0.011834    0.011918    0.012288    0.012843    0.013035    0.014414
 Highest eigenvalues
    1.231194    1.239536    1.255517    1.279055    1.295399    1.304216


........................................................................
.............................. CYCLE    1 ..............................
........................................................................

 iter      E             dE          RMSdq      gap      omega  full diag
   1    -52.3857818 -0.523858E+02  0.694E-05   11.91       0.0  T
   2    -52.3857818 -0.139480E-10  0.391E-05   11.91     361.9  T
   3    -52.3857818 -0.190425E-11  0.109E-05   11.91    1300.9  T
     SCC iter.                  ...        0 min,  0.015 sec
     gradient                   ...        0 min,  0.014 sec
 * total energy  :   -51.6368116 Eh     change       -0.3945502E-09 Eh
   gradient norm :     0.0223094 Eh/α   predicted     0.0000000E+00 (-100.00%)
   displ. norm   :     0.1367592 α      lambda       -0.1928703E-02
   maximum displ.:     0.0835793 α      in ANC's #9, #66, #96, ...

........................................................................
.............................. CYCLE    2 ..............................
........................................................................

 iter      E             dE          RMSdq      gap      omega  full diag
   1    -52.4069032 -0.524069E+02  0.883E-02   11.91       0.0  T
   2    -52.4069090 -0.587701E-05  0.510E-02   11.91       1.0  T
   3    -52.4069098 -0.707088E-06  0.369E-03   11.90       3.8  T
   4    -52.4069098 -0.340888E-07  0.153E-03   11.90       9.3  T
   5    -52.4069098 -0.142165E-09  0.539E-04   11.90      26.3  T
   6    -52.4069098 -0.119699E-08  0.573E-05   11.90     247.0  T
     SCC iter.                  ...        0 min,  0.031 sec
     gradient                   ...        0 min,  0.032 sec
 * total energy  :   -51.6378372 Eh     change       -0.1025548E-02 Eh
   gradient norm :     0.0062498 Eh/α   predicted    -0.9823897E-03 (  -4.21%)
   displ. norm   :     0.0372648 α      lambda       -0.5803039E-04
   maximum displ.:     0.0330467 α      in ANC's #9, #24, #12, ...

........................................................................
.............................. CYCLE    3 ..............................
........................................................................

 iter      E             dE          RMSdq      gap      omega  full diag
   1    -52.4095819 -0.524096E+02  0.993E-03   11.89       0.0  T
   2    -52.4095824 -0.487384E-06  0.553E-03   11.89       2.6  T
   3    -52.4095824 -0.803358E-08  0.161E-03   11.89       8.8  T
   4    -52.4095824 -0.201879E-08  0.194E-04   11.89      72.8  T
   5    -52.4095824 -0.109743E-09  0.111E-04   11.89     127.6  T
     SCC iter.                  ...        0 min,  0.025 sec
     gradient                   ...        0 min,  0.014 sec
 * total energy  :   -51.6378759 Eh     change       -0.3871920E-04 Eh
   gradient norm :     0.0023071 Eh/α   predicted    -0.2934224E-04 ( -24.22%)
   displ. norm   :     0.0389310 α      lambda       -0.1973766E-04
   maximum displ.:     0.0370244 α      in ANC's #9, #12, #23, ...

........................................................................
.............................. CYCLE    4 ..............................
........................................................................

 iter      E             dE          RMSdq      gap      omega  full diag
   1    -52.4099842 -0.524100E+02  0.575E-03   11.86       0.0  T
   2    -52.4099844 -0.118524E-06  0.342E-03   11.86       4.1  T
   3    -52.4099844 -0.149902E-08  0.771E-04   11.86      18.3  T
   4    -52.4099844 -0.860915E-09  0.964E-05   11.86     146.7  T
     SCC iter.                  ...        0 min,  0.021 sec
     gradient                   ...        0 min,  0.018 sec
 * total energy  :   -51.6378881 Eh     change       -0.1221698E-04 Eh
   gradient norm :     0.0006832 Eh/α   predicted    -0.9916472E-05 ( -18.83%)
   displ. norm   :     0.0277277 α      lambda       -0.2948370E-05
   maximum displ.:     0.0264374 α      in ANC's #9, #12, #4, ...

........................................................................
.............................. CYCLE    5 ..............................
........................................................................

 iter      E             dE          RMSdq      gap      omega  full diag
   1    -52.4091750 -0.524092E+02  0.341E-03   11.85       0.0  T
   2    -52.4091750 -0.326300E-08  0.201E-03   11.85       7.0  T
   3    -52.4091750 -0.696012E-09  0.133E-04   11.85     106.1  T
   4    -52.4091750 -0.122519E-09  0.707E-05   11.85     200.2  T
     SCC iter.                  ...        0 min,  0.020 sec
     gradient                   ...        0 min,  0.024 sec
 * total energy  :   -51.6378915 Eh     change       -0.3397318E-05 Eh
   gradient norm :     0.0006841 Eh/α   predicted    -0.1764660E-05 ( -48.06%)
   displ. norm   :     0.0113657 α      lambda       -0.9538854E-06
   maximum displ.:     0.0106420 α      in ANC's #9, #4, #12, ...

   *** GEOMETRY OPTIMIZATION CONVERGED AFTER 5 ITERATIONS ***

------------------------------------------------------------------------
 total energy gain   :        -0.0010799 Eh       -0.6776 kcal/mol
 total RMSD          :         0.0304107 a0        0.0161 Å
 total power (kW/mol):        -0.5670460 (step)  -10.4196 (real)
------------------------------------------------------------------------

 ANCopt (total)                0 d,  0 h,  0 min,  0.272 sec
 optimizer setup                ...        0 min,  0.000 sec (  0.162%)
 model hessian                  ...        0 min,  0.017 sec (  6.122%)
 ANC generation                 ...        0 min,  0.010 sec (  3.798%)
 coordinate transformation      ...        0 min,  0.001 sec (  0.235%)
 single point calculation       ...        0 min,  0.241 sec ( 88.532%)
 optimization log               ...        0 min,  0.001 sec (  0.192%)
 hessian update                 ...        0 min,  0.000 sec (  0.086%)
 rational function              ...        0 min,  0.001 sec (  0.355%)

================
 final structure:
================
50
 xtb: 6.7.1 (unknown)
C            0.95038964420810        0.10858480969847       -0.06162809228756
C            2.47407928307373        0.08126173387679       -0.05374421836756
C            3.01585563858680       -1.30741578266778        0.27680195139255
C            4.54196763116410       -1.34196565728307        0.28646793038799
C            5.08343871167166       -2.73069606098597        0.61638080561217
C            6.60964928381878       -2.76360482231088        0.62539240874835
C            7.15237033004381       -4.15187619985032        0.95477873982897
C            8.67856494304276       -4.18372150359445        0.96362895518815
C            9.22174355929585       -5.57191585023819        1.29247645924972
C           10.74793803385065       -5.60374607734588        1.30139207510734
C           11.29065982023751       -6.99229937264207        1.62958661967843
C           12.81687003349573       -7.02513359481206        1.63891460033430
C           13.35834239568453       -8.41432431966056        1.96688281789548
C           14.88445329597959       -8.44877669010511        1.97696739544333
C           15.42623096659375       -9.83805629159630        2.30497207471898
C           16.94991986998498       -9.86523760784077        2.31346359653024
H            0.58560342581355        1.10512053837498       -0.29912770725806
H            0.55943574087992       -0.17746717362343        0.91241784255627
H            0.56100432529874       -0.58573585720481       -0.80306862457503
H            2.84615192413118        0.79753503570163        0.68238027491268
H            2.84770523079573        0.38985187562912       -1.03279586684025
H            2.64330328777102       -2.02380035716355       -0.45930897031157
H            2.64164191434023       -1.61623393585699        1.25580819477656
H            4.91448410552224       -0.62549980317866        1.02259154452129
H            4.91610865580910       -1.03231463983320       -0.69236193868152
H            4.71151914711226       -3.44747493950727       -0.11964077586812
H            4.71013952273182       -3.04062527372040        1.59536611866600
H            6.98158978425136       -2.04695487813315        1.36151866115862
H            6.98292779253005       -2.45338026387235       -0.35350264489757
H            6.78081274032215       -4.86865035556672        0.21859516846727
H            6.77932667242172       -4.46233853545820        1.93367308303029
H            9.05012432625397       -3.46714962619880        1.70000759830220
H            9.05158456933870       -3.87291980672837       -0.01516932225202
H            8.85024295680280       -6.28844732862402        0.55602706972497
H            8.84866507575622       -5.88278522195695        2.27122947570227
H           11.11945709084772       -4.88758764000312        2.03819202318159
H           11.12102005911144       -5.29245730095380        0.32277315536931
H           10.91894183941430       -7.70824505859965        0.89266163749195
H           10.91715982970327       -7.30351123758735        2.60808251509486
H           13.18858326423783       -6.30941511309275        2.37607008943544
H           13.19037450135213       -6.71374885603726        0.66046863525187
H           12.98611583051835       -9.12968128969093        1.22953380125744
H           12.98391135129168       -8.72551503794096        2.94511268938343
H           15.25672333081676       -7.73379139835633        2.71457938080023
H           15.25894858121926       -8.13803538061811        0.99867682729777
H           15.05455616798516      -10.55288533550067        1.56724421232056
H           15.05220882499042      -10.14865485121652        3.28323653999160
H           17.34126697335211       -9.57690828852755        1.34024715222391
H           17.31470708923056      -10.86227819527216        2.54883223147237
H           17.33891062731382       -9.17258118232353        3.05666580883252

 Bond Distances (Angstroems)
 ---------------------------
C1-C2=1.5240         C1-H17=1.0875        C1-H18=1.0879        C1-H19=1.0879        C2-C1=1.5240         C2-C3=1.5268         
C2-H20=1.0924        C2-H21=1.0924        C3-C2=1.5268         C3-C4=1.5265         C3-H22=1.0926        C3-H23=1.0926        
C4-C3=1.5265         C4-C5=1.5266         C4-H24=1.0927        C4-H25=1.0927        C5-C4=1.5266         C5-C6=1.5266         
C5-H26=1.0926        C5-H27=1.0926        C6-C5=1.5266         C6-C7=1.5265         C6-H28=1.0926        C6-H29=1.0926        
C7-C6=1.5265         C7-C8=1.5266         C7-H30=1.0926        C7-H31=1.0926        C8-C7=1.5266         C8-C9=1.5265         
C8-H32=1.0926        C8-H33=1.0926        C9-C8=1.5265         C9-C10=1.5266        C9-H34=1.0926        C9-H35=1.0926        
C10-C9=1.5266        C10-C11=1.5265       C10-H36=1.0926       C10-H37=1.0926       C11-C10=1.5265       C11-C12=1.5266       
C11-H38=1.0926       C11-H39=1.0926       C12-C11=1.5266       C12-C13=1.5266       C12-H40=1.0926       C12-H41=1.0926       
C13-C12=1.5266       C13-C14=1.5265       C13-H42=1.0927       C13-H43=1.0927       C14-C13=1.5265       C14-C15=1.5268       
C14-H44=1.0926       C14-H45=1.0926       C15-C14=1.5268       C15-C16=1.5240       C15-H46=1.0924       C15-H47=1.0924       
C16-C15=1.5240       C16-H48=1.0879       C16-H49=1.0875       C16-H50=1.0879       H17-C1=1.0875        H18-C1=1.0879        
H19-C1=1.0879        H20-C2=1.0924        H21-C2=1.0924        H22-C3=1.0926        H23-C3=1.0926        H24-C4=1.0927        
H25-C4=1.0927        H26-C5=1.0926        H27-C5=1.0926        H28-C6=1.0926        H29-C6=1.0926        H30-C7=1.0926        
H31-C7=1.0926        H32-C8=1.0926        H33-C8=1.0926        H34-C9=1.0926        H35-C9=1.0926        H36-C10=1.0926       
H37-C10=1.0926       H38-C11=1.0926       H39-C11=1.0926       H40-C12=1.0926       H41-C12=1.0926       H42-C13=1.0927       
H43-C13=1.0927       H44-C14=1.0926       H45-C14=1.0926       H46-C15=1.0924       H47-C15=1.0924       H48-C16=1.0879       
H49-C16=1.0875       H50-C16=1.0879       
 C  H  Rav=1.0917 sigma=0.0019  Rmin=1.0875  Rmax=1.0927    34
 C  C  Rav=1.5263 sigma=0.0009  Rmin=1.5240  Rmax=1.5268    15

 selected bond angles (degree)
 --------------------
H17-C1-C2=110.67               H18-C1-C2=110.49               H18-C1-H17=108.42              H19-C1-C2=110.48               
H19-C1-H17=108.42              H19-C1-H18=108.29              C3-C2-C1=111.85                H20-C2-C1=109.41               
H20-C2-C3=109.25               H21-C2-C1=109.41               H21-C2-C3=109.24               H21-C2-H20=107.59              
C4-C3-C2=112.13                H22-C3-C2=109.24               H22-C3-C4=109.29               H23-C3-C2=109.24               
H23-C3-C4=109.29               H23-C3-H22=107.55              C5-C4-C3=112.12                H24-C4-C3=109.28               
H24-C4-C5=109.27               H25-C4-C3=109.28               H25-C4-C5=109.26               H25-C4-H24=107.51              
C6-C5-C4=112.05                H26-C5-C4=109.30               H26-C5-C6=109.28               H27-C5-C4=109.30               
H27-C5-C6=109.28               H27-C5-H26=107.53              C7-C6-C5=112.11                H28-C6-C5=109.28               
H28-C6-C7=109.27               H29-C6-C5=109.28               H29-C6-C7=109.27               H29-C6-H28=107.52              
C8-C7-C6=112.07                H30-C7-C6=109.29               H30-C7-C8=109.28               H31-C7-C6=109.29               
H31-C7-C8=109.28               H31-C7-H30=107.53              C9-C8-C7=112.08                H32-C8-C7=109.28               
H32-C8-C9=109.28               H33-C8-C7=109.28               H33-C8-C9=109.28               H33-C8-H32=107.52              
C10-C9-C8=112.08               H34-C9-C8=109.28               H34-C9-C10=109.28              H35-C9-C8=109.28               
H35-C9-C10=109.28              H35-C9-H34=107.52              C11-C10-C9=112.07              H36-C10-C9=109.28              
H36-C10-C11=109.29             H37-C10-C9=109.28              H37-C10-C11=109.29             H37-C10-H36=107.53             

 selected dihedral angles (degree)
 ---------------------------------
C3-C2-C1-H17=180.02           C3-C2-C1-H18= 59.92           C3-C2-C1-H19=300.11           H20-C2-C1-H17= 58.83          
H20-C2-C1-H18=298.74          H20-C2-C1-H19=178.93          H21-C2-C1-H17=301.20          H21-C2-C1-H18=181.11          
H21-C2-C1-H19= 61.29          C4-C3-C2-C1=180.00            C4-C3-C2-H20=301.28           C4-C3-C2-H21= 58.73           
H22-C3-C2-C1= 58.70           H22-C3-C2-H20=179.98          H22-C3-C2-H21=297.42          H23-C3-C2-C1=301.31           
H23-C3-C2-H20= 62.59          H23-C3-C2-H21=180.03          C5-C4-C3-C2=180.03            C5-C4-C3-H22=301.30           
C5-C4-C3-H23= 58.75           H24-C4-C3-C2= 58.72           H24-C4-C3-H22=180.00          H24-C4-C3-H23=297.45          
H25-C4-C3-C2=301.32           H25-C4-C3-H22= 62.60          H25-C4-C3-H23=180.05          C6-C5-C4-C3=179.99            
C6-C5-C4-H24=301.30           C6-C5-C4-H25= 58.68           H26-C5-C4-C3= 58.71           H26-C5-C4-H24=180.02          
H26-C5-C4-H25=297.40          H27-C5-C4-C3=301.27           H27-C5-C4-H24= 62.59          H27-C5-C4-H25=179.97          
C7-C6-C5-C4=180.02            C7-C6-C5-H26=301.31           C7-C6-C5-H27= 58.72           H28-C6-C5-C4= 58.72           
H28-C6-C5-H26=180.01          H28-C6-C5-H27=297.42          H29-C6-C5-C4=301.31           H29-C6-C5-H26= 62.61          
H29-C6-C5-H27=180.02          C8-C7-C6-C5=180.00            C8-C7-C6-H28=301.31           C8-C7-C6-H29= 58.70           
H30-C7-C6-C5= 58.72           H30-C7-C6-H28=180.02          H30-C7-C6-H29=297.42          H31-C7-C6-C5=301.29           
H31-C7-C6-H28= 62.60          H31-C7-C6-H29=180.00          C9-C8-C7-C6=180.02            C9-C8-C7-H30=301.31           
C9-C8-C7-H31= 58.73           H32-C8-C7-C6= 58.72           H32-C8-C7-H30=180.02          H32-C8-C7-H31=297.43          
H33-C8-C7-C6=301.31           H33-C8-C7-H30= 62.61          H33-C8-C7-H31=180.02          C10-C9-C8-C7=180.00           
C10-C9-C8-H32=301.30          C10-C9-C8-H33= 58.71          H34-C9-C8-C7= 58.71           H34-C9-C8-H32=180.01          
H34-C9-C8-H33=297.41          H35-C9-C8-C7=301.30           H35-C9-C8-H32= 62.60          H35-C9-C8-H33=180.01          
C11-C10-C9-C8=180.03          C11-C10-C9-H34=301.32         C11-C10-C9-H35= 58.73         H36-C10-C9-C8= 58.73          
H36-C10-C9-H34=180.03         H36-C10-C9-H35=297.44         H37-C10-C9-C8=301.32          H37-C10-C9-H34= 62.62         
H37-C10-C9-H35=180.02         
           -------------------------------------------------
          |                Final Singlepoint                |
           -------------------------------------------------

          ...................................................
          :                      SETUP                      :
          :.................................................:
          :  # basis functions                  98          :
          :  # atomic orbitals                  98          :
          :  # shells                           66          :
          :  # electrons                        98          :
          :  max. iterations                   250          :
          :  Hamiltonian                  GFN2-xTB          :
          :  restarted?                      false          :
          :  GBSA solvation                  false          :
          :  PC potential                    false          :
          :  electronic temp.          300.0000000     K    :
          :  accuracy                    1.0000000          :
          :  -> integral cutoff          0.2500000E+02      :
          :  -> integral neglect         0.1000000E-07      :
          :  -> SCF convergence          0.1000000E-05 Eh   :
          :  -> wf. convergence          0.1000000E-03 e    :
          :  Broyden damping             0.4000000          :
          :  net charge                          0          :
          :  unpaired electrons                  0          :
          ...................................................

 iter      E             dE          RMSdq      gap      omega  full diag
   1    -52.4091750 -0.524092E+02  0.190E-05   11.85       0.0  T
   2    -52.4091750 -0.138556E-11  0.108E-05   11.85    1309.8  T
   3    -52.4091750 -0.113687E-12  0.436E-06   11.85    3245.3  T

   *** convergence criteria satisfied after 3 iterations ***

         #    Occupation            Energy/Eh            Energy/eV
      -------------------------------------------------------------
         1        2.0000           -0.6234435             -16.9648
       ...           ...                  ...                  ...
        43        2.0000           -0.4217209             -11.4756
        44        2.0000           -0.4205061             -11.4426
        45        2.0000           -0.4182090             -11.3800
        46        2.0000           -0.4167508             -11.3404
        47        2.0000           -0.4165076             -11.3337
        48        2.0000           -0.4163442             -11.3293
        49        2.0000           -0.4067930             -11.0694 (HOMO)
        50                          0.0286712               0.7802 (LUMO)
        51                          0.0559123               1.5215
        52                          0.0947722               2.5789
        53                          0.0995612               2.7092
        54                          0.1085862               2.9548
       ...                                ...                  ...
        98                          0.3278725               8.9219
      -------------------------------------------------------------
                  HL-Gap            0.4354641 Eh           11.8496 eV
             Fermi-level           -0.1890609 Eh           -5.1446 eV

 SCC (total)                   0 d,  0 h,  0 min,  0.088 sec
 SCC setup                      ...        0 min,  0.001 sec (  1.414%)
 Dispersion                     ...        0 min,  0.001 sec (  0.638%)
 classical contributions        ...        0 min,  0.000 sec (  0.262%)
 integral evaluation            ...        0 min,  0.009 sec (  9.774%)
 iterations                     ...        0 min,  0.035 sec ( 39.362%)
 molecular gradient             ...        0 min,  0.040 sec ( 45.697%)
 printout                       ...        0 min,  0.002 sec (  2.822%)

         :::::::::::::::::::::::::::::::::::::::::::::::::::::
         ::                     SUMMARY                     ::
         :::::::::::::::::::::::::::::::::::::::::::::::::::::
         :: total energy             -51.637891511093 Eh    ::
         :: gradient norm              0.000684123674 Eh/a0 ::
         :: HOMO-LUMO gap             11.849581994036 eV    ::
         ::.................................................::
         :: SCC energy               -52.409623126123 Eh    ::
         :: -> isotropic ES            0.008476810329 Eh    ::
         :: -> anisotropic ES          0.016290991080 Eh    ::
         :: -> anisotropic XC          0.031137282462 Eh    ::
         :: -> dispersion             -0.032615607004 Eh    ::
         :: repulsion energy           0.771731615031 Eh    ::
         :: add. restraining           0.000000000000 Eh    ::
         :: total charge               0.000000000000 e     ::
         :::::::::::::::::::::::::::::::::::::::::::::::::::::

           -------------------------------------------------
          |                Property Printout                |
           -------------------------------------------------

    * Orbital Energies and Occupations

         #    Occupation            Energy/Eh            Energy/eV
      -------------------------------------------------------------
         1        2.0000           -0.6234435             -16.9648
       ...           ...                  ...                  ...
        37        2.0000           -0.4359359             -11.8624
        38        2.0000           -0.4347965             -11.8314
        39        2.0000           -0.4297702             -11.6946
        40        2.0000           -0.4275978             -11.6355
        41        2.0000           -0.4273345             -11.6284
        42        2.0000           -0.4257473             -11.5852
        43        2.0000           -0.4217209             -11.4756
        44        2.0000           -0.4205061             -11.4426
        45        2.0000           -0.4182090             -11.3800
        46        2.0000           -0.4167508             -11.3404
        47        2.0000           -0.4165076             -11.3337
        48        2.0000           -0.4163442             -11.3293
        49        2.0000           -0.4067930             -11.0694 (HOMO)
        50                          0.0286712               0.7802 (LUMO)
        51                          0.0559123               1.5215
        52                          0.0947722               2.5789
        53                          0.0995612               2.7092
        54                          0.1085862               2.9548
        55                          0.1120841               3.0500
        56                          0.1126964               3.0666
        57                          0.1151085               3.1323
        58                          0.1192375               3.2446
        59                          0.1228466               3.3428
        60                          0.1297094               3.5296
       ...                                ...                  ...
        98                          0.3278725               8.9219
      -------------------------------------------------------------
                  HL-Gap            0.4354641 Eh           11.8496 eV
             Fermi-level           -0.1890609 Eh           -5.1446 eV

     #   Z          covCN         q      C6AA      α(0)
     1   6          3.752    -0.102    22.512     6.766
     2   6          3.801    -0.053    21.524     6.605
     3   6          3.803    -0.059    21.634     6.622
     4   6          3.803    -0.058    21.623     6.620
     5   6          3.803    -0.058    21.619     6.620
     6   6          3.803    -0.058    21.621     6.620
     7   6          3.803    -0.058    21.621     6.620
     8   6          3.803    -0.058    21.622     6.620
     9   6          3.803    -0.058    21.622     6.620
    10   6          3.803    -0.058    21.621     6.620
    11   6          3.803    -0.058    21.621     6.620
    12   6          3.803    -0.058    21.619     6.620
    13   6          3.803    -0.058    21.623     6.620
    14   6          3.803    -0.059    21.634     6.622
    15   6          3.801    -0.053    21.524     6.605
    16   6          3.752    -0.102    22.512     6.766
    17   1          0.925     0.033     2.550     2.497
    18   1          0.925     0.033     2.541     2.493
    19   1          0.925     0.033     2.541     2.493
    20   1          0.924     0.028     2.608     2.525
    21   1          0.924     0.028     2.608     2.525
    22   1          0.924     0.030     2.590     2.517
    23   1          0.924     0.030     2.590     2.517
    24   1          0.924     0.029     2.607     2.525
    25   1          0.924     0.029     2.607     2.525
    26   1          0.924     0.029     2.600     2.521
    27   1          0.924     0.029     2.600     2.521
    28   1          0.924     0.029     2.600     2.521
    29   1          0.924     0.029     2.600     2.521
    30   1          0.924     0.029     2.599     2.521
    31   1          0.924     0.029     2.599     2.521
    32   1          0.924     0.029     2.599     2.521
    33   1          0.924     0.029     2.599     2.521
    34   1          0.924     0.029     2.599     2.521
    35   1          0.924     0.029     2.599     2.521
    36   1          0.924     0.029     2.599     2.521
    37   1          0.924     0.029     2.599     2.521
    38   1          0.924     0.029     2.600     2.521
    39   1          0.924     0.029     2.600     2.521
    40   1          0.924     0.029     2.600     2.521
    41   1          0.924     0.029     2.600     2.521
    42   1          0.924     0.029     2.607     2.525
    43   1          0.924     0.029     2.607     2.525
    44   1          0.924     0.030     2.590     2.517
    45   1          0.924     0.030     2.590     2.517
    46   1          0.924     0.028     2.608     2.525
    47   1          0.924     0.028     2.608     2.525
    48   1          0.925     0.033     2.541     2.493
    49   1          0.925     0.033     2.550     2.497
    50   1          0.925     0.033     2.541     2.493

 Mol. C6AA /au·bohr⁶  :      16663.779292
 Mol. C8AA /au·bohr⁸  :     348638.876099
 Mol. α(0) /au        :        191.758052


Wiberg/Mayer (AO) data.
largest (>0.10) Wiberg bond orders for each atom

 ---------------------------------------------------------------------------
     #   Z sym  total        # sym  WBO       # sym  WBO       # sym  WBO
 ---------------------------------------------------------------------------
     1   6      3.997 --     2      1.019    18      0.988    19      0.988
                            17      0.988
     2   6      3.998 --     1      1.019     3      1.008    20      0.979
                            21      0.979
     3   6      3.997 --     2      1.008     4      1.007    23      0.978
                            22      0.978
     4   6      3.997 --     3      1.007     5      1.007    24      0.978
                            25      0.978
     5   6      3.997 --     4      1.007     6      1.007    27      0.978
                            26      0.978
     6   6      3.997 --     7      1.007     5      1.007    28      0.978
                            29      0.978
     7   6      3.997 --     6      1.007     8      1.007    31      0.978
                            30      0.978
     8   6      3.997 --     9      1.007     7      1.007    32      0.978
                            33      0.978
     9   6      3.997 --     8      1.007    10      1.007    35      0.978
                            34      0.978
    10   6      3.997 --    11      1.007     9      1.007    36      0.978
                            37      0.978
    11   6      3.997 --    10      1.007    12      1.007    39      0.978
                            38      0.978
    12   6      3.997 --    13      1.007    11      1.007    41      0.978
                            40      0.978
    13   6      3.997 --    14      1.007    12      1.007    42      0.978
                            43      0.978
    14   6      3.997 --    15      1.008    13      1.007    45      0.978
                            44      0.978
    15   6      3.998 --    16      1.019    14      1.008    46      0.979
                            47      0.979
    16   6      3.997 --    15      1.019    48      0.988    50      0.988
                            49      0.988
    17   1      0.999 --     1      0.988
    18   1      0.999 --     1      0.988
    19   1      0.999 --     1      0.988
    20   1      0.999 --     2      0.979
    21   1      0.999 --     2      0.979
    22   1      0.999 --     3      0.978
    23   1      0.999 --     3      0.978
    24   1      0.999 --     4      0.978
    25   1      0.999 --     4      0.978
    26   1      0.999 --     5      0.978
    27   1      0.999 --     5      0.978
    28   1      0.999 --     6      0.978
    29   1      0.999 --     6      0.978
    30   1      0.999 --     7      0.978
    31   1      0.999 --     7      0.978
    32   1      0.999 --     8      0.978
    33   1      0.999 --     8      0.978
    34   1      0.999 --     9      0.978
    35   1      0.999 --     9      0.978
    36   1      0.999 --    10      0.978
    37   1      0.999 --    10      0.978
    38   1      0.999 --    11      0.978
    39   1      0.999 --    11      0.978
    40   1      0.999 --    12      0.978
    41   1      0.999 --    12      0.978
    42   1      0.999 --    13      0.978
    43   1      0.999 --    13      0.978
    44   1      0.999 --    14      0.978
    45   1      0.999 --    14      0.978
    46   1      0.999 --    15      0.979
    47   1      0.999 --    15      0.979
    48   1      0.999 --    16      0.988
    49   1      0.999 --    16      0.988
    50   1      0.999 --    16      0.988
 ---------------------------------------------------------------------------

Topologies differ in total number of bonds
Writing topology from bond orders to xtbtopo.mol

molecular dipole:
                 x           y           z       tot (Debye)
 q only:       -0.000      -0.000      -0.000
   full:       -0.000      -0.000      -0.000       0.000
molecular quadrupole (traceless):
                xx          xy          yy          xz          yz          zz
 q only:        1.121      -0.575      -0.077       0.138      -0.243      -1.045
  q+dip:       -3.264       1.979      -1.044      -0.476       1.343       4.308
   full:       -1.223       0.744      -0.594      -0.179       0.605       1.817

           -------------------------------------------------
          |                Geometry Summary                 |
           -------------------------------------------------

      molecular mass/u    :      226.4417599
   center of mass at/Å    :        8.9501554      -4.8780608       1.1270347
  moments of inertia/u·Å² :        0.9650679E+02   0.7888832E+04   0.7935227E+04
rotational constants/cm⁻¹ :        0.1746782E+00   0.2136898E-02   0.2124405E-02

 * 49 selected distances

     #   Z          #   Z                                           value/Å
     1   6          2   6                                         1.5239551
     2   6          3   6                                         1.5268294
     3   6          4   6                                         1.5265338
     4   6          5   6                                         1.5266322
     5   6          6   6                                         1.5265921
     6   6          7   6                                         1.5265449
     7   6          8   6                                         1.5265526
     8   6          9   6                                         1.5265214
     9   6         10   6                                         1.5265525
    10   6         11   6                                         1.5265449
    11   6         12   6                                         1.5265920
    12   6         13   6                                         1.5266325
    13   6         14   6                                         1.5265332
    14   6         15   6                                         1.5268295 (max)
    15   6         16   6                                         1.5239551
     1   6         17   1                                         1.0874552
     1   6         18   1                                         1.0878586
     1   6         19   1                                         1.0878586
     2   6         20   1                                         1.0924125
     2   6         21   1                                         1.0924132
     3   6         22   1                                         1.0926397
     3   6         23   1                                         1.0926381
     4   6         24   1                                         1.0926894
     4   6         25   1                                         1.0926909
     5   6         26   1                                         1.0926226
     5   6         27   1                                         1.0926211
     6   6         28   1                                         1.0926157
     6   6         29   1                                         1.0926170
     7   6         30   1                                         1.0926055
     7   6         31   1                                         1.0926037
     8   6         32   1                                         1.0926049
     8   6         33   1                                         1.0926059
     9   6         34   1                                         1.0926061
     9   6         35   1                                         1.0926047
    10   6         36   1                                         1.0926041
    10   6         37   1                                         1.0926052
    11   6         38   1                                         1.0926166
    11   6         39   1                                         1.0926159
Note: The following floating-point exceptions are signalling: IEEE_UNDERFLOW_FLAG
normal termination of xtb
    12   6         40   1                                         1.0926217
    12   6         41   1                                         1.0926220
    13   6         42   1                                         1.0926903
    13   6         43   1                                         1.0926903
    14   6         44   1                                         1.0926393
    14   6         45   1                                         1.0926388
    15   6         46   1                                         1.0924126
    15   6         47   1                                         1.0924127
    16   6         48   1                                         1.0878588
    16   6         49   1                                         1.0874549 (min)
    16   6         50   1                                         1.0878587

 * 2 distinct bonds (by element types)

   Z      Z             #   av. dist./Å        max./Å        min./Å
   1 H    6 C          34     1.0917384     1.0926909     1.0874549
   6 C    6 C          15     1.5262534     1.5268295     1.5239551


optimized geometry written to: xtbopt.xyz


           -------------------------------------------------
          | TOTAL ENERGY              -51.637891511093 Eh   |
          | GRADIENT NORM               0.000684123674 Eh/α |
          | HOMO-LUMO GAP              11.849581994036 eV   |
           -------------------------------------------------

------------------------------------------------------------------------
 * finished run on 2026/08/28 at 19:10:20.341     
------------------------------------------------------------------------
 total:
 * wall-time:     0 d,  0 h,  0 min,  0.480 sec
 *  cpu-time:     0 d,  0 h,  0 min,  0.397 sec
 * ratio c/w:     0.827 speedup
 SCF:
 * wall-time:     0 d,  0 h,  0 min,  0.076 sec
 *  cpu-time:     0 d,  0 h,  0 min,  0.072 sec
 * ratio c/w:     0.946 speedup
 ANC optimizer:
 * wall-time:     0 d,  0 h,  0 min,  0.362 sec
 *  cpu-time:     0 d,  0 h,  0 min,  0.314 sec
 * ratio c/w:     0.867 speedup

