      -----------------------------------------------------------      
     |                   =====================                   |     
     |                           x T B                           |     
     |                   =====================                   |     
     |                         S. Grimme                         |     
     |          Mulliken Center for Theoretical Chemistry        |     
     |                    University of Bonn                     |     
      -----------------------------------------------------------      

   * xtb version 6.7.1 (unknown) compiled by 'root@buildkitsandbox' on 2026-08-28

   xtb is free software: you can redistribute it and/or modify it under
   the terms of the GNU Lesser General Public License as published by
   the Free Software Foundation, either version 3 of the License, or
   (at your option) any later version.
   
   xtb is distributed in the hope that it will be useful,
   but WITHOUT ANY WARRANTY; without even the implied warranty of
   MERCHANTABILITY or FITNESS FOR A PARTICULAR PURPOSE.  See the
   GNU Lesser General Public License for more details.
   
   Cite this work as:
   * C. Bannwarth, E. Caldeweyher, S. Ehlert, A. Hansen, P. Pracht,
     J. Seibert, S. Spicher, S. Grimme, WIREs Comput. Mol. Sci., 2020, 11,
     e01493. DOI: 10.1002/wcms.1493
   
   for GFN2-xTB:
   * C. Bannwarth, S. Ehlert and S. Grimme., J. Chem. Theory Comput., 2019,
     15, 1652-1671. DOI: 10.1021/acs.jctc.8b01176
   for GFN1-xTB:
   * S. Grimme, C. Bannwarth, P. Shushkov, J. Chem. Theory Comput., 2017,
     13, 1989-2009. DOI: 10.1021/acs.jctc.7b00118
   for GFN0-xTB:
   * P. Pracht, E. Caldeweyher, S. Ehlert, S. Grimme, ChemRxiv, 2019, preprint.
     DOI: 10.26434/chemrxiv.8326202.v1
   for GFN-FF:
   * S. Spicher and S. Grimme, Angew. Chem. Int. Ed., 2020, 59, 15665-15673.
     DOI: 10.1002/anie.202004239
   
   for ALPB and GBSA implicit solvation:
   * S. Ehlert, M. Stahn, S. Spicher, S. Grimme, J. Chem. Theory Comput.,
     2021, 17, 4250-4261. DOI: 10.1021/acs.jctc.1c00471
   
   for ddCOSMO and CPCM-X implicit solvation:
   * M. Stahn, S. Ehlert, S. Grimme, J. Phys. Chem. A,
     2023, XX, XXXX-XXXX. DOI: 10.1021/acs.jpca.3c04382
   
   for DFT-D4:
   * E. Caldeweyher, C. Bannwarth and S. Grimme, J. Chem. Phys., 2017,
     147, 034112. DOI: 10.1063/1.4993215
   * E. Caldeweyher, S. Ehlert, A. Hansen, H. Neugebauer, S. Spicher,
     C. Bannwarth and S. Grimme, J. Chem. Phys., 2019, 150, 154122.
     DOI: 10.1063/1.5090222
   * E. Caldeweyher, J.-M. Mewes, S. Ehlert and S. Grimme, Phys. Chem. Chem. Phys.
     2020, 22, 8499-8512. DOI: 10.1039/D0CP00502A
   
   for sTDA-xTB:
   * S. Grimme and C. Bannwarth, J. Chem. Phys., 2016, 145, 054103.
     DOI: 10.1063/1.4959605
   
   in the mass-spec context:
   * V. Asgeirsson, C. Bauer and S. Grimme, Chem. Sci., 2017, 8, 4879.
     DOI: 10.1039/c7sc00601b
   * J. Koopman and S. Grimme, ACS Omega 2019, 4, 12, 15120-15133.
     DOI: 10.1021/acsomega.9b02011
   
   for metadynamics refer to:
   * S. Grimme, J. Chem. Theory Comput., 2019, 155, 2847-2862
     DOI: 10.1021/acs.jctc.9b00143
   
   for SPH calculations refer to:
   * S. Spicher and S. Grimme, J. Chem. Theory Comput., 2021, 17, 1701-1714
     DOI: 10.1021/acs.jctc.0c01306
   
   for ONIOM refer to:
   * C. Plett, A. Katbashev, S. Ehlert, S. Grimme, M. Bursch,
     Phys. Chem. Chem. Phys., 2023, 25, 17860-17868. DOI: 10.1039/D3CP02178E
   
   for DIPRO refer to:
   * J. Kohn, N. Gildemeister, S. Grimme, D. Fazzi, A. Hansen,
     J. Chem. Phys. 159, 144106 (2023). DOI: 10.1063/5.0167484
   
   for PTB refer to:
   * S. Grimme, M. Mueller, A. Hansen, J. Chem. Phys., 2023, 158, 124111.
     DOI: 10.1063/5.0137838
   
   with help from (in alphabetical order)
   P. Atkinson, C. Bannwarth, F. Bohle, G. Brandenburg, E. Caldeweyher,
   M. Checinski, S. Dohm, S. Ehlert, S. Ehrlich, M. Friede, T. Froitzheim,
   I. Gerasimov, C. Hölzer, A. Katbashev, J. Kohn, J. Koopman, C. Lavigne,
   S. Lehtola, F. März, M. Müller, F. Musil, H. Neugebauer, J. Pisarek,
   C. Plett, P. Pracht, F. Pultar, J. Seibert, P. Shushkov, S. Spicher,
   M. Stahn, M. Steiner, T. Strunk, J. Stückrath, T. Rose, and J. Unsleber
   
 * started run on 2026/08/28 at 19:09:44.066     
   ID    Z sym.   atoms
    1    6 C      1-12
    2    1 H      13-38

           -------------------------------------------------
          |                Calculation Setup                |
           -------------------------------------------------

          program call               : xtb in.xyz --gfn 2 --grad --norestart
          hostname                   : 756d39058c4f
          coordinate file            : in.xyz
          random seed                :            2101387465


           -------------------------------------------------
          |                 G F N 2 - x T B                 |
           -------------------------------------------------

        Reference                      10.1021/acs.jctc.8b01176
      * Hamiltonian:
        H0-scaling (s, p, d)           1.850000    2.230000    2.230000
        zeta-weighting                 0.500000
      * Dispersion:
        s8                             2.700000
        a1                             0.520000
        a2                             5.000000
        s9                             5.000000
      * Repulsion:
        kExp                           1.500000    1.000000
        rExp                           1.000000
      * Coulomb:
        alpha                          2.000000
        third order                    shell-resolved
        anisotropic                    true
        a3                             3.000000
        a5                             4.000000
        cn-shift                       1.200000
        cn-exp                         4.000000
        max-rad                        5.000000


          ...................................................
          :                      SETUP                      :
          :.................................................:
          :  # basis functions                  74          :
          :  # atomic orbitals                  74          :
          :  # shells                           50          :
          :  # electrons                        74          :
          :  max. iterations                   250          :
          :  Hamiltonian                  GFN2-xTB          :
          :  restarted?                      false          :
          :  GBSA solvation                  false          :
          :  PC potential                    false          :
          :  electronic temp.          300.0000000     K    :
          :  accuracy                    1.0000000          :
          :  -> integral cutoff          0.2500000E+02      :
          :  -> integral neglect         0.1000000E-07      :
          :  -> SCF convergence          0.1000000E-05 Eh   :
          :  -> wf. convergence          0.1000000E-03 e    :
          :  Broyden damping             0.4000000          :
          :  net charge                          0          :
          :  unpaired electrons                  0          :
          ...................................................

 iter      E             dE          RMSdq      gap      omega  full diag
   1    -39.4432032 -0.394432E+02  0.264E+00   12.04       0.0  T
   2    -39.5452730 -0.102070E+00  0.146E+00   12.10       1.0  T
   3    -39.5466664 -0.139335E-02  0.757E-01   12.13       1.0  T
   4    -39.5469492 -0.282824E-03  0.842E-02   12.15       1.0  T
   5    -39.5469557 -0.651433E-05  0.427E-02   12.15       1.0  T
   6    -39.5469578 -0.208052E-05  0.200E-03   12.15       8.1  T
   7    -39.5469578 -0.460052E-07  0.850E-04   12.15      19.1  T
   8    -39.5469578 -0.160193E-08  0.338E-04   12.15      48.0  T

   *** convergence criteria satisfied after 8 iterations ***

         #    Occupation            Energy/Eh            Energy/eV
      -------------------------------------------------------------
         1        2.0000           -0.6224699             -16.9383
       ...           ...                  ...                  ...
        31        2.0000           -0.4281379             -11.6502
        32        2.0000           -0.4269069             -11.6167
        33        2.0000           -0.4229890             -11.5101
        34        2.0000           -0.4182862             -11.3821
        35        2.0000           -0.4170252             -11.3478
        36        2.0000           -0.4167742             -11.3410
        37        2.0000           -0.4070734             -11.0770 (HOMO)
        38                          0.0392508               1.0681 (LUMO)
        39                          0.0806540               2.1947
        40                          0.0941778               2.5627
        41                          0.1059870               2.8841
        42                          0.1062816               2.8921
       ...                                ...                  ...
        74                          0.3183907               8.6639
      -------------------------------------------------------------
                  HL-Gap            0.4463242 Eh           12.1451 eV
             Fermi-level           -0.1839113 Eh           -5.0045 eV

 SCC (total)                   0 d,  0 h,  0 min,  0.041 sec
 SCC setup                      ...        0 min,  0.000 sec (  0.210%)
 Dispersion                     ...        0 min,  0.000 sec (  0.357%)
 classical contributions        ...        0 min,  0.000 sec (  0.090%)
 integral evaluation            ...        0 min,  0.002 sec (  5.045%)
 iterations                     ...        0 min,  0.024 sec ( 58.492%)
 molecular gradient             ...        0 min,  0.012 sec ( 28.081%)
 printout                       ...        0 min,  0.003 sec (  7.693%)

         :::::::::::::::::::::::::::::::::::::::::::::::::::::
         ::                     SUMMARY                     ::
         :::::::::::::::::::::::::::::::::::::::::::::::::::::
         :: total energy             -38.979436537234 Eh    ::
         :: gradient norm              0.020154560288 Eh/a0 ::
         :: HOMO-LUMO gap             12.145099538568 eV    ::
         ::.................................................::
         :: SCC energy               -39.547223439528 Eh    ::
         :: -> isotropic ES            0.006455709704 Eh    ::
         :: -> anisotropic ES          0.013131990237 Eh    ::
         :: -> anisotropic XC          0.024590167735 Eh    ::
         :: -> dispersion             -0.023744472493 Eh    ::
         :: repulsion energy           0.567786902294 Eh    ::
         :: add. restraining           0.000000000000 Eh    ::
         :: total charge              -0.000000000000 e     ::
         :::::::::::::::::::::::::::::::::::::::::::::::::::::

           -------------------------------------------------
          |                Property Printout                |
           -------------------------------------------------

    * Orbital Energies and Occupations

         #    Occupation            Energy/Eh            Energy/eV
      -------------------------------------------------------------
         1        2.0000           -0.6224699             -16.9383
       ...           ...                  ...                  ...
        25        2.0000           -0.4522977             -12.3076
        26        2.0000           -0.4446819             -12.1004
        27        2.0000           -0.4441690             -12.0865
        28        2.0000           -0.4349590             -11.8358
        29        2.0000           -0.4317983             -11.7498
        30        2.0000           -0.4315156             -11.7421
        31        2.0000           -0.4281379             -11.6502
        32        2.0000           -0.4269069             -11.6167
        33        2.0000           -0.4229890             -11.5101
        34        2.0000           -0.4182862             -11.3821
        35        2.0000           -0.4170252             -11.3478
        36        2.0000           -0.4167742             -11.3410
        37        2.0000           -0.4070734             -11.0770 (HOMO)
        38                          0.0392508               1.0681 (LUMO)
        39                          0.0806540               2.1947
        40                          0.0941778               2.5627
        41                          0.1059870               2.8841
        42                          0.1062816               2.8921
        43                          0.1089769               2.9654
        44                          0.1134515               3.0872
        45                          0.1281185               3.4863
        46                          0.1314514               3.5770
        47                          0.1340577               3.6479
        48                          0.1347392               3.6664
       ...                                ...                  ...
        74                          0.3183907               8.6639
      -------------------------------------------------------------
                  HL-Gap            0.4463242 Eh           12.1451 eV
             Fermi-level           -0.1839113 Eh           -5.0045 eV

     #   Z          covCN         q      C6AA      α(0)
     1   6          3.750    -0.100    22.472     6.761
     2   6          3.800    -0.052    21.505     6.602
     3   6          3.802    -0.058    21.621     6.620
     4   6          3.802    -0.058    21.615     6.619
     5   6          3.802    -0.058    21.610     6.618
     6   6          3.802    -0.058    21.612     6.619
     7   6          3.802    -0.058    21.612     6.619
     8   6          3.802    -0.058    21.610     6.618
     9   6          3.802    -0.058    21.615     6.619
    10   6          3.802    -0.058    21.621     6.620
    11   6          3.800    -0.052    21.505     6.602
    12   6          3.750    -0.100    22.472     6.761
    13   1          0.924     0.031     2.573     2.508
    14   1          0.924     0.032     2.557     2.501
    15   1          0.924     0.032     2.557     2.501
    16   1          0.924     0.028     2.611     2.527
    17   1          0.924     0.028     2.611     2.527
    18   1          0.924     0.030     2.591     2.517
    19   1          0.924     0.030     2.591     2.517
    20   1          0.924     0.028     2.609     2.526
    21   1          0.924     0.028     2.609     2.526
    22   1          0.924     0.029     2.604     2.523
    23   1          0.924     0.029     2.604     2.523
    24   1          0.924     0.029     2.604     2.523
    25   1          0.924     0.029     2.604     2.523
    26   1          0.924     0.029     2.604     2.523
    27   1          0.924     0.029     2.604     2.523
    28   1          0.924     0.029     2.604     2.523
    29   1          0.924     0.029     2.604     2.523
    30   1          0.924     0.028     2.609     2.526
    31   1          0.924     0.028     2.609     2.526
    32   1          0.924     0.030     2.591     2.517
    33   1          0.924     0.030     2.591     2.517
    34   1          0.924     0.028     2.611     2.527
    35   1          0.924     0.028     2.611     2.527
    36   1          0.924     0.032     2.557     2.501
    37   1          0.924     0.031     2.573     2.508
    38   1          0.924     0.032     2.557     2.501

 Mol. C6AA /au·bohr⁶  :       9539.723965
 Mol. C8AA /au·bohr⁸  :     198786.503108
 Mol. α(0) /au        :        145.164781


Wiberg/Mayer (AO) data.
largest (>0.10) Wiberg bond orders for each atom

 ---------------------------------------------------------------------------
     #   Z sym  total        # sym  WBO       # sym  WBO       # sym  WBO
 ---------------------------------------------------------------------------
     1   6      3.997 --     2      1.020    15      0.988    14      0.988
                            13      0.987
     2   6      3.997 --     1      1.020     3      1.008    17      0.978
                            16      0.978
     3   6      3.997 --     2      1.008     4      1.007    18      0.977
                            19      0.977
     4   6      3.997 --     3      1.007     5      1.007    21      0.977
Note: The following floating-point exceptions are signalling: IEEE_UNDERFLOW_FLAG
normal termination of xtb
                            20      0.977
     5   6      3.997 --     4      1.007     6      1.007    22      0.977
                            23      0.977
     6   6      3.996 --     5      1.007     7      1.007    25      0.977
                            24      0.977
     7   6      3.996 --     8      1.007     6      1.007    26      0.977
                            27      0.977
     8   6      3.997 --     9      1.007     7      1.007    29      0.977
                            28      0.977
     9   6      3.997 --    10      1.007     8      1.007    30      0.977
                            31      0.977
    10   6      3.997 --    11      1.008     9      1.007    32      0.977
                            33      0.977
    11   6      3.997 --    12      1.020    10      1.008    34      0.978
                            35      0.978
    12   6      3.997 --    11      1.020    38      0.988    36      0.988
                            37      0.987
    13   1      0.999 --     1      0.987
    14   1      0.999 --     1      0.988
    15   1      0.999 --     1      0.988
    16   1      0.999 --     2      0.978
    17   1      0.999 --     2      0.978
    18   1      0.999 --     3      0.977
    19   1      0.999 --     3      0.977
    20   1      0.999 --     4      0.977
    21   1      0.999 --     4      0.977
    22   1      0.999 --     5      0.977
    23   1      0.999 --     5      0.977
    24   1      0.999 --     6      0.977
    25   1      0.999 --     6      0.977
    26   1      0.999 --     7      0.977
    27   1      0.999 --     7      0.977
    28   1      0.999 --     8      0.977
    29   1      0.999 --     8      0.977
    30   1      0.999 --     9      0.977
    31   1      0.999 --     9      0.977
    32   1      0.999 --    10      0.977
    33   1      0.999 --    10      0.977
    34   1      0.999 --    11      0.978
    35   1      0.999 --    11      0.978
    36   1      0.999 --    12      0.988
    37   1      0.999 --    12      0.987
    38   1      0.999 --    12      0.988
 ---------------------------------------------------------------------------

Topologies differ in total number of bonds
Writing topology from bond orders to xtbtopo.mol

molecular dipole:
                 x           y           z       tot (Debye)
 q only:       -0.000      -0.000      -0.000
   full:       -0.000      -0.000      -0.000       0.000
molecular quadrupole (traceless):
                xx          xy          yy          xz          yz          zz
 q only:        0.554       0.067      -0.533      -0.167      -0.252      -0.020
  q+dip:       -2.810      -0.681       2.813       1.661       1.385      -0.004
   full:       -1.192      -0.283       1.206       0.691       0.600      -0.015


           -------------------------------------------------
          | TOTAL ENERGY              -38.979436537234 Eh   |
          | GRADIENT NORM               0.020154560288 Eh/α |
          | HOMO-LUMO GAP              12.145099538568 eV   |
           -------------------------------------------------

------------------------------------------------------------------------
 * finished run on 2026/08/28 at 19:09:44.122     
------------------------------------------------------------------------
 total:
 * wall-time:     0 d,  0 h,  0 min,  0.057 sec
 *  cpu-time:     0 d,  0 h,  0 min,  0.049 sec
 * ratio c/w:     0.875 speedup
 SCF:
 * wall-time:     0 d,  0 h,  0 min,  0.041 sec
 *  cpu-time:     0 d,  0 h,  0 min,  0.038 sec
 * ratio c/w:     0.920 speedup

