      -----------------------------------------------------------      
     |                   =====================                   |     
     |                           x T B                           |     
     |                   =====================                   |     
     |                         S. Grimme                         |     
     |          Mulliken Center for Theoretical Chemistry        |     
     |                    University of Bonn                     |     
      -----------------------------------------------------------      

   * xtb version 6.7.1 (unknown) compiled by 'root@buildkitsandbox' on 2026-08-28

   xtb is free software: you can redistribute it and/or modify it under
   the terms of the GNU Lesser General Public License as published by
   the Free Software Foundation, either version 3 of the License, or
   (at your option) any later version.
   
   xtb is distributed in the hope that it will be useful,
   but WITHOUT ANY WARRANTY; without even the implied warranty of
   MERCHANTABILITY or FITNESS FOR A PARTICULAR PURPOSE.  See the
   GNU Lesser General Public License for more details.
   
   Cite this work as:
   * C. Bannwarth, E. Caldeweyher, S. Ehlert, A. Hansen, P. Pracht,
     J. Seibert, S. Spicher, S. Grimme, WIREs Comput. Mol. Sci., 2020, 11,
     e01493. DOI: 10.1002/wcms.1493
   
   for GFN2-xTB:
   * C. Bannwarth, S. Ehlert and S. Grimme., J. Chem. Theory Comput., 2019,
     15, 1652-1671. DOI: 10.1021/acs.jctc.8b01176
   for GFN1-xTB:
   * S. Grimme, C. Bannwarth, P. Shushkov, J. Chem. Theory Comput., 2017,
     13, 1989-2009. DOI: 10.1021/acs.jctc.7b00118
   for GFN0-xTB:
   * P. Pracht, E. Caldeweyher, S. Ehlert, S. Grimme, ChemRxiv, 2019, preprint.
     DOI: 10.26434/chemrxiv.8326202.v1
   for GFN-FF:
   * S. Spicher and S. Grimme, Angew. Chem. Int. Ed., 2020, 59, 15665-15673.
     DOI: 10.1002/anie.202004239
   
   for ALPB and GBSA implicit solvation:
   * S. Ehlert, M. Stahn, S. Spicher, S. Grimme, J. Chem. Theory Comput.,
     2021, 17, 4250-4261. DOI: 10.1021/acs.jctc.1c00471
   
   for ddCOSMO and CPCM-X implicit solvation:
   * M. Stahn, S. Ehlert, S. Grimme, J. Phys. Chem. A,
     2023, XX, XXXX-XXXX. DOI: 10.1021/acs.jpca.3c04382
   
   for DFT-D4:
   * E. Caldeweyher, C. Bannwarth and S. Grimme, J. Chem. Phys., 2017,
     147, 034112. DOI: 10.1063/1.4993215
   * E. Caldeweyher, S. Ehlert, A. Hansen, H. Neugebauer, S. Spicher,
     C. Bannwarth and S. Grimme, J. Chem. Phys., 2019, 150, 154122.
     DOI: 10.1063/1.5090222
   * E. Caldeweyher, J.-M. Mewes, S. Ehlert and S. Grimme, Phys. Chem. Chem. Phys.
     2020, 22, 8499-8512. DOI: 10.1039/D0CP00502A
   
   for sTDA-xTB:
   * S. Grimme and C. Bannwarth, J. Chem. Phys., 2016, 145, 054103.
     DOI: 10.1063/1.4959605
   
   in the mass-spec context:
   * V. Asgeirsson, C. Bauer and S. Grimme, Chem. Sci., 2017, 8, 4879.
     DOI: 10.1039/c7sc00601b
   * J. Koopman and S. Grimme, ACS Omega 2019, 4, 12, 15120-15133.
     DOI: 10.1021/acsomega.9b02011
   
   for metadynamics refer to:
   * S. Grimme, J. Chem. Theory Comput., 2019, 155, 2847-2862
     DOI: 10.1021/acs.jctc.9b00143
   
   for SPH calculations refer to:
   * S. Spicher and S. Grimme, J. Chem. Theory Comput., 2021, 17, 1701-1714
     DOI: 10.1021/acs.jctc.0c01306
   
   for ONIOM refer to:
   * C. Plett, A. Katbashev, S. Ehlert, S. Grimme, M. Bursch,
     Phys. Chem. Chem. Phys., 2023, 25, 17860-17868. DOI: 10.1039/D3CP02178E
   
   for DIPRO refer to:
   * J. Kohn, N. Gildemeister, S. Grimme, D. Fazzi, A. Hansen,
     J. Chem. Phys. 159, 144106 (2023). DOI: 10.1063/5.0167484
   
   for PTB refer to:
   * S. Grimme, M. Mueller, A. Hansen, J. Chem. Phys., 2023, 158, 124111.
     DOI: 10.1063/5.0137838
   
   with help from (in alphabetical order)
   P. Atkinson, C. Bannwarth, F. Bohle, G. Brandenburg, E. Caldeweyher,
   M. Checinski, S. Dohm, S. Ehlert, S. Ehrlich, M. Friede, T. Froitzheim,
   I. Gerasimov, C. Hölzer, A. Katbashev, J. Kohn, J. Koopman, C. Lavigne,
   S. Lehtola, F. März, M. Müller, F. Musil, H. Neugebauer, J. Pisarek,
   C. Plett, P. Pracht, F. Pultar, J. Seibert, P. Shushkov, S. Spicher,
   M. Stahn, M. Steiner, T. Strunk, J. Stückrath, T. Rose, and J. Unsleber
   
 * started run on 2026/08/28 at 19:09:53.035     
   ID    Z sym.   atoms
    1    6 C      1-24
    2    1 H      25-74

           -------------------------------------------------
          |                Calculation Setup                |
           -------------------------------------------------

          program call               : xtb in.xyz --gfn 2 --grad --norestart
          hostname                   : 756d39058c4f
          coordinate file            : in.xyz
          random seed                :            2003067753


           -------------------------------------------------
          |                 G F N 2 - x T B                 |
           -------------------------------------------------

        Reference                      10.1021/acs.jctc.8b01176
      * Hamiltonian:
        H0-scaling (s, p, d)           1.850000    2.230000    2.230000
        zeta-weighting                 0.500000
      * Dispersion:
        s8                             2.700000
        a1                             0.520000
        a2                             5.000000
        s9                             5.000000
      * Repulsion:
        kExp                           1.500000    1.000000
        rExp                           1.000000
      * Coulomb:
        alpha                          2.000000
        third order                    shell-resolved
        anisotropic                    true
        a3                             3.000000
        a5                             4.000000
        cn-shift                       1.200000
        cn-exp                         4.000000
        max-rad                        5.000000


          ...................................................
          :                      SETUP                      :
          :.................................................:
          :  # basis functions                 146          :
          :  # atomic orbitals                 146          :
          :  # shells                           98          :
          :  # electrons                       146          :
          :  max. iterations                   250          :
          :  Hamiltonian                  GFN2-xTB          :
          :  restarted?                      false          :
          :  GBSA solvation                  false          :
          :  PC potential                    false          :
          :  electronic temp.          300.0000000     K    :
          :  accuracy                    1.0000000          :
          :  -> integral cutoff          0.2500000E+02      :
          :  -> integral neglect         0.1000000E-07      :
          :  -> SCF convergence          0.1000000E-05 Eh   :
          :  -> wf. convergence          0.1000000E-03 e    :
          :  Broyden damping             0.4000000          :
          :  net charge                          0          :
          :  unpaired electrons                  0          :
          ...................................................

 iter      E             dE          RMSdq      gap      omega  full diag
   1    -77.8668812 -0.778669E+02  0.258E+00   11.58       0.0  T
   2    -78.0600423 -0.193161E+00  0.141E+00   11.65       1.0  T
   3    -78.0629234 -0.288117E-02  0.731E-01   11.68       1.0  T
   4    -78.0634656 -0.542163E-03  0.807E-02   11.71       1.0  T
   5    -78.0634706 -0.496498E-05  0.362E-02   11.71       1.0  T
   6    -78.0634752 -0.467990E-05  0.182E-03   11.70       6.4  T
   7    -78.0634753 -0.709046E-07  0.657E-04   11.70      17.7  T
   8    -78.0634753 -0.231303E-08  0.324E-04   11.70      35.9  T

   *** convergence criteria satisfied after 8 iterations ***

         #    Occupation            Energy/Eh            Energy/eV
      -------------------------------------------------------------
         1        2.0000           -0.6227978             -16.9472
       ...           ...                  ...                  ...
        67        2.0000           -0.4171798             -11.3520
        68        2.0000           -0.4169186             -11.3449
        69        2.0000           -0.4168730             -11.3437
        70        2.0000           -0.4165001             -11.3335
        71        2.0000           -0.4164301             -11.3316
        72        2.0000           -0.4093793             -11.1398
        73        2.0000           -0.4015943             -10.9279 (HOMO)
        74                          0.0285359               0.7765 (LUMO)
        75                          0.0424885               1.1562
        76                          0.0638956               1.7387
        77                          0.0903845               2.4595
        78                          0.0904894               2.4623
       ...                                ...                  ...
       146                          0.3203611               8.7175
      -------------------------------------------------------------
                  HL-Gap            0.4301303 Eh           11.7044 eV
             Fermi-level           -0.1865292 Eh           -5.0757 eV

 SCC (total)                   0 d,  0 h,  0 min,  0.174 sec
 SCC setup                      ...        0 min,  0.001 sec (  0.414%)
 Dispersion                     ...        0 min,  0.001 sec (  0.714%)
 classical contributions        ...        0 min,  0.000 sec (  0.218%)
 integral evaluation            ...        0 min,  0.010 sec (  5.847%)
 iterations                     ...        0 min,  0.114 sec ( 65.865%)
 molecular gradient             ...        0 min,  0.042 sec ( 24.218%)
 printout                       ...        0 min,  0.005 sec (  2.711%)

         :::::::::::::::::::::::::::::::::::::::::::::::::::::
         ::                     SUMMARY                     ::
         :::::::::::::::::::::::::::::::::::::::::::::::::::::
         :: total energy             -76.951564847297 Eh    ::
         :: gradient norm              0.026110903988 Eh/a0 ::
         :: HOMO-LUMO gap             11.704440381947 eV    ::
         ::.................................................::
         :: SCC energy               -78.064270334589 Eh    ::
         :: -> isotropic ES            0.011825488689 Eh    ::
         :: -> anisotropic ES          0.025168048056 Eh    ::
         :: -> anisotropic XC          0.047496738293 Eh    ::
         :: -> dispersion             -0.050472272161 Eh    ::
         :: repulsion energy           1.112705487292 Eh    ::
         :: add. restraining           0.000000000000 Eh    ::
         :: total charge               0.000000000000 e     ::
         :::::::::::::::::::::::::::::::::::::::::::::::::::::

           -------------------------------------------------
          |                Property Printout                |
           -------------------------------------------------

    * Orbital Energies and Occupations

         #    Occupation            Energy/Eh            Energy/eV
      -------------------------------------------------------------
         1        2.0000           -0.6227978             -16.9472
       ...           ...                  ...                  ...
        61        2.0000           -0.4276227             -11.6362
        62        2.0000           -0.4270203             -11.6198
        63        2.0000           -0.4228043             -11.5051
        64        2.0000           -0.4209342             -11.4542
        65        2.0000           -0.4197874             -11.4230
        66        2.0000           -0.4178692             -11.3708
        67        2.0000           -0.4171798             -11.3520
        68        2.0000           -0.4169186             -11.3449
        69        2.0000           -0.4168730             -11.3437
        70        2.0000           -0.4165001             -11.3335
        71        2.0000           -0.4164301             -11.3316
        72        2.0000           -0.4093793             -11.1398
        73        2.0000           -0.4015943             -10.9279 (HOMO)
        74                          0.0285359               0.7765 (LUMO)
        75                          0.0424885               1.1562
        76                          0.0638956               1.7387
        77                          0.0903845               2.4595
        78                          0.0904894               2.4623
        79                          0.0947125               2.5773
        80                          0.1016233               2.7653
        81                          0.1041174               2.8332
        82                          0.1042015               2.8355
        83                          0.1064656               2.8971
        84                          0.1066779               2.9029
       ...                                ...                  ...
       146                          0.3203611               8.7175
      -------------------------------------------------------------
                  HL-Gap            0.4301303 Eh           11.7044 eV
             Fermi-level           -0.1865292 Eh           -5.0757 eV

     #   Z          covCN         q      C6AA      α(0)
     1   6          3.750    -0.100    22.472     6.761
     2   6          3.800    -0.052    21.505     6.603
     3   6          3.802    -0.058    21.621     6.620
     4   6          3.802    -0.058    21.615     6.619
     5   6          3.802    -0.058    21.610     6.618
     6   6          3.802    -0.058    21.613     6.619
     7   6          3.802    -0.058    21.613     6.619
     8   6          3.802    -0.058    21.613     6.619
     9   6          3.802    -0.058    21.614     6.619
    10   6          3.802    -0.058    21.614     6.619
    11   6          3.802    -0.058    21.614     6.619
    12   6          3.802    -0.058    21.614     6.619
    13   6          3.802    -0.058    21.614     6.619
    14   6          3.802    -0.058    21.614     6.619
    15   6          3.802    -0.058    21.614     6.619
    16   6          3.802    -0.058    21.613     6.619
    17   6          3.802    -0.058    21.613     6.619
    18   6          3.802    -0.058    21.613     6.619
    19   6          3.802    -0.058    21.613     6.619
    20   6          3.802    -0.058    21.610     6.618
    21   6          3.802    -0.058    21.615     6.619
    22   6          3.802    -0.058    21.621     6.620
    23   6          3.800    -0.052    21.505     6.603
    24   6          3.750    -0.100    22.472     6.761
    25   1          0.924     0.031     2.573     2.508
    26   1          0.924     0.032     2.557     2.501
    27   1          0.924     0.032     2.557     2.500
    28   1          0.924     0.028     2.611     2.527
    29   1          0.924     0.028     2.611     2.527
    30   1          0.924     0.030     2.591     2.517
    31   1          0.924     0.030     2.591     2.517
    32   1          0.924     0.028     2.609     2.526
    33   1          0.924     0.028     2.609     2.526
    34   1          0.924     0.029     2.603     2.523
    35   1          0.924     0.029     2.603     2.523
    36   1          0.924     0.029     2.603     2.523
    37   1          0.924     0.029     2.603     2.523
    38   1          0.924     0.029     2.602     2.523
    39   1          0.924     0.029     2.602     2.523
    40   1          0.924     0.029     2.602     2.523
    41   1          0.924     0.029     2.602     2.523
    42   1          0.924     0.029     2.602     2.523
    43   1          0.924     0.029     2.602     2.523
    44   1          0.924     0.029     2.602     2.523
    45   1          0.924     0.029     2.602     2.523
    46   1          0.924     0.029     2.602     2.523
    47   1          0.924     0.029     2.602     2.523
    48   1          0.924     0.029     2.602     2.523
    49   1          0.924     0.029     2.602     2.523
    50   1          0.924     0.029     2.602     2.523
    51   1          0.924     0.029     2.602     2.523
    52   1          0.924     0.029     2.602     2.523
    53   1          0.924     0.029     2.602     2.523
    54   1          0.924     0.029     2.602     2.523
    55   1          0.924     0.029     2.602     2.523
    56   1          0.924     0.029     2.602     2.523
    57   1          0.924     0.029     2.602     2.523
    58   1          0.924     0.029     2.602     2.523
    59   1          0.924     0.029     2.602     2.523
    60   1          0.924     0.029     2.602     2.523
    61   1          0.924     0.029     2.602     2.523
    62   1          0.924     0.029     2.603     2.523
    63   1          0.924     0.029     2.603     2.523
    64   1          0.924     0.029     2.603     2.523
    65   1          0.924     0.029     2.603     2.523
    66   1          0.924     0.028     2.609     2.526
    67   1          0.924     0.028     2.609     2.526
    68   1          0.924     0.030     2.591     2.517
    69   1          0.924     0.030     2.591     2.517
    70   1          0.924     0.028     2.611     2.527
    71   1          0.924     0.028     2.611     2.527
    72   1          0.924     0.032     2.557     2.500
    73   1          0.924     0.031     2.573     2.508
    74   1          0.924     0.032     2.557     2.500

 Mol. C6AA /au·bohr⁶  :      36874.729778
 Mol. C8AA /au·bohr⁸  :     774203.552985
 Mol. α(0) /au        :        285.134305


Wiberg/Mayer (AO) data.
largest (>0.10) Wiberg bond orders for each atom

 ---------------------------------------------------------------------------
     #   Z sym  total        # sym  WBO       # sym  WBO       # sym  WBO
 ---------------------------------------------------------------------------
     1   6      3.997 --     2      1.020    26      0.988    27      0.988
                            25      0.987
     2   6      3.997 --     1      1.020     3      1.008    28      0.978
                            29      0.978
     3   6      3.997 --     2      1.008     4      1.007    31      0.977
                            30      0.977
     4   6      3.997 --     3      1.007     5      1.007    32      0.977
                            33      0.977
     5   6      3.997 --     4      1.007     6      1.007    35      0.977
                            34      0.977
     6   6      3.996 --     5      1.007     7      1.007    36      0.977
                            37      0.977
     7   6      3.996 --     8      1.007     6      1.007    38      0.977
                            39      0.977
     8   6      3.996 --     7      1.007     9      1.007    41      0.977
                            40      0.977
     9   6      3.996 --    10      1.007     8      1.007    42      0.977
                            43      0.977
    10   6      3.996 --    11      1.007     9      1.007    45      0.977
                            44      0.977
    11   6      3.996 --    10      1.007    12      1.007    47      0.977
                            46      0.977
    12   6      3.996 --    13      1.007    11      1.007    48      0.977
                            49      0.977
    13   6      3.996 --    12      1.007    14      1.007    51      0.977
                            50      0.977
    14   6      3.996 --    15      1.007    13      1.007    52      0.977
                            53      0.977
    15   6      3.996 --    14      1.007    16      1.007    55      0.977
                            54      0.977
    16   6      3.996 --    15      1.007    17      1.007    57      0.977
                            56      0.977
    17   6      3.996 --    18      1.007    16      1.007    59      0.977
                            58      0.977
    18   6      3.996 --    17      1.007    19      1.007    61      0.977
                            60      0.977
    19   6      3.996 --    20      1.007    18      1.007    62      0.977
                            63      0.977
    20   6      3.997 --    21      1.007    19      1.007    65      0.977
                            64      0.977
    21   6      3.997 --    22      1.007    20      1.007    66      0.977
                            67      0.977
    22   6      3.997 --    23      1.008    21      1.007    69      0.977
Note: The following floating-point exceptions are signalling: IEEE_UNDERFLOW_FLAG
normal termination of xtb
                            68      0.977
    23   6      3.997 --    24      1.020    22      1.008    71      0.978
                            70      0.978
    24   6      3.997 --    23      1.020    72      0.988    74      0.988
                            73      0.987
    25   1      0.999 --     1      0.987
    26   1      0.999 --     1      0.988
    27   1      0.999 --     1      0.988
    28   1      0.999 --     2      0.978
    29   1      0.999 --     2      0.978
    30   1      0.999 --     3      0.977
    31   1      0.999 --     3      0.977
    32   1      0.999 --     4      0.977
    33   1      0.999 --     4      0.977
    34   1      0.999 --     5      0.977
    35   1      0.999 --     5      0.977
    36   1      0.999 --     6      0.977
    37   1      0.999 --     6      0.977
    38   1      0.999 --     7      0.977
    39   1      0.999 --     7      0.977
    40   1      0.999 --     8      0.977
    41   1      0.999 --     8      0.977
    42   1      0.999 --     9      0.977
    43   1      0.999 --     9      0.977
    44   1      0.999 --    10      0.977
    45   1      0.999 --    10      0.977
    46   1      0.999 --    11      0.977
    47   1      0.999 --    11      0.977
    48   1      0.999 --    12      0.977
    49   1      0.999 --    12      0.977
    50   1      0.999 --    13      0.977
    51   1      0.999 --    13      0.977
    52   1      0.999 --    14      0.977
    53   1      0.999 --    14      0.977
    54   1      0.999 --    15      0.977
    55   1      0.999 --    15      0.977
    56   1      0.999 --    16      0.977
    57   1      0.999 --    16      0.977
    58   1      0.999 --    17      0.977
    59   1      0.999 --    17      0.977
    60   1      0.999 --    18      0.977
    61   1      0.999 --    18      0.977
    62   1      0.999 --    19      0.977
    63   1      0.999 --    19      0.977
    64   1      0.999 --    20      0.977
    65   1      0.999 --    20      0.977
    66   1      0.999 --    21      0.977
    67   1      0.999 --    21      0.977
    68   1      0.999 --    22      0.977
    69   1      0.999 --    22      0.977
    70   1      0.999 --    23      0.978
    71   1      0.999 --    23      0.978
    72   1      0.999 --    24      0.988
    73   1      0.999 --    24      0.987
    74   1      0.999 --    24      0.988
 ---------------------------------------------------------------------------

Topologies differ in total number of bonds
Writing topology from bond orders to xtbtopo.mol

molecular dipole:
                 x           y           z       tot (Debye)
 q only:       -0.000       0.000      -0.000
   full:       -0.000       0.000      -0.000       0.000
molecular quadrupole (traceless):
                xx          xy          yy          xz          yz          zz
 q only:        1.186       0.309      -0.614       0.315       0.779      -0.572
  q+dip:       -5.266      -2.739       2.752      -2.806      -4.359       2.514
   full:       -2.168      -1.137       1.136      -1.165      -1.898       1.032


           -------------------------------------------------
          | TOTAL ENERGY              -76.951564847297 Eh   |
          | GRADIENT NORM               0.026110903988 Eh/α |
          | HOMO-LUMO GAP              11.704440381947 eV   |
           -------------------------------------------------

------------------------------------------------------------------------
 * finished run on 2026/08/28 at 19:09:53.237     
------------------------------------------------------------------------
 total:
 * wall-time:     0 d,  0 h,  0 min,  0.202 sec
 *  cpu-time:     0 d,  0 h,  0 min,  0.194 sec
 * ratio c/w:     0.964 speedup
 SCF:
 * wall-time:     0 d,  0 h,  0 min,  0.174 sec
 *  cpu-time:     0 d,  0 h,  0 min,  0.168 sec
 * ratio c/w:     0.963 speedup

