      -----------------------------------------------------------      
     |                   =====================                   |     
     |                           x T B                           |     
     |                   =====================                   |     
     |                         S. Grimme                         |     
     |          Mulliken Center for Theoretical Chemistry        |     
     |                    University of Bonn                     |     
      -----------------------------------------------------------      

   * xtb version 6.7.1 (unknown) compiled by 'root@buildkitsandbox' on 2026-08-28

   xtb is free software: you can redistribute it and/or modify it under
   the terms of the GNU Lesser General Public License as published by
   the Free Software Foundation, either version 3 of the License, or
   (at your option) any later version.
   
   xtb is distributed in the hope that it will be useful,
   but WITHOUT ANY WARRANTY; without even the implied warranty of
   MERCHANTABILITY or FITNESS FOR A PARTICULAR PURPOSE.  See the
   GNU Lesser General Public License for more details.
   
   Cite this work as:
   * C. Bannwarth, E. Caldeweyher, S. Ehlert, A. Hansen, P. Pracht,
     J. Seibert, S. Spicher, S. Grimme, WIREs Comput. Mol. Sci., 2020, 11,
     e01493. DOI: 10.1002/wcms.1493
   
   for GFN2-xTB:
   * C. Bannwarth, S. Ehlert and S. Grimme., J. Chem. Theory Comput., 2019,
     15, 1652-1671. DOI: 10.1021/acs.jctc.8b01176
   for GFN1-xTB:
   * S. Grimme, C. Bannwarth, P. Shushkov, J. Chem. Theory Comput., 2017,
     13, 1989-2009. DOI: 10.1021/acs.jctc.7b00118
   for GFN0-xTB:
   * P. Pracht, E. Caldeweyher, S. Ehlert, S. Grimme, ChemRxiv, 2019, preprint.
     DOI: 10.26434/chemrxiv.8326202.v1
   for GFN-FF:
   * S. Spicher and S. Grimme, Angew. Chem. Int. Ed., 2020, 59, 15665-15673.
     DOI: 10.1002/anie.202004239
   
   for ALPB and GBSA implicit solvation:
   * S. Ehlert, M. Stahn, S. Spicher, S. Grimme, J. Chem. Theory Comput.,
     2021, 17, 4250-4261. DOI: 10.1021/acs.jctc.1c00471
   
   for ddCOSMO and CPCM-X implicit solvation:
   * M. Stahn, S. Ehlert, S. Grimme, J. Phys. Chem. A,
     2023, XX, XXXX-XXXX. DOI: 10.1021/acs.jpca.3c04382
   
   for DFT-D4:
   * E. Caldeweyher, C. Bannwarth and S. Grimme, J. Chem. Phys., 2017,
     147, 034112. DOI: 10.1063/1.4993215
   * E. Caldeweyher, S. Ehlert, A. Hansen, H. Neugebauer, S. Spicher,
     C. Bannwarth and S. Grimme, J. Chem. Phys., 2019, 150, 154122.
     DOI: 10.1063/1.5090222
   * E. Caldeweyher, J.-M. Mewes, S. Ehlert and S. Grimme, Phys. Chem. Chem. Phys.
     2020, 22, 8499-8512. DOI: 10.1039/D0CP00502A
   
   for sTDA-xTB:
   * S. Grimme and C. Bannwarth, J. Chem. Phys., 2016, 145, 054103.
     DOI: 10.1063/1.4959605
   
   in the mass-spec context:
   * V. Asgeirsson, C. Bauer and S. Grimme, Chem. Sci., 2017, 8, 4879.
     DOI: 10.1039/c7sc00601b
   * J. Koopman and S. Grimme, ACS Omega 2019, 4, 12, 15120-15133.
     DOI: 10.1021/acsomega.9b02011
   
   for metadynamics refer to:
   * S. Grimme, J. Chem. Theory Comput., 2019, 155, 2847-2862
     DOI: 10.1021/acs.jctc.9b00143
   
   for SPH calculations refer to:
   * S. Spicher and S. Grimme, J. Chem. Theory Comput., 2021, 17, 1701-1714
     DOI: 10.1021/acs.jctc.0c01306
   
   for ONIOM refer to:
   * C. Plett, A. Katbashev, S. Ehlert, S. Grimme, M. Bursch,
     Phys. Chem. Chem. Phys., 2023, 25, 17860-17868. DOI: 10.1039/D3CP02178E
   
   for DIPRO refer to:
   * J. Kohn, N. Gildemeister, S. Grimme, D. Fazzi, A. Hansen,
     J. Chem. Phys. 159, 144106 (2023). DOI: 10.1063/5.0167484
   
   for PTB refer to:
   * S. Grimme, M. Mueller, A. Hansen, J. Chem. Phys., 2023, 158, 124111.
     DOI: 10.1063/5.0137838
   
   with help from (in alphabetical order)
   P. Atkinson, C. Bannwarth, F. Bohle, G. Brandenburg, E. Caldeweyher,
   M. Checinski, S. Dohm, S. Ehlert, S. Ehrlich, M. Friede, T. Froitzheim,
   I. Gerasimov, C. Hölzer, A. Katbashev, J. Kohn, J. Koopman, C. Lavigne,
   S. Lehtola, F. März, M. Müller, F. Musil, H. Neugebauer, J. Pisarek,
   C. Plett, P. Pracht, F. Pultar, J. Seibert, P. Shushkov, S. Spicher,
   M. Stahn, M. Steiner, T. Strunk, J. Stückrath, T. Rose, and J. Unsleber
   
 * started run on 2026/08/28 at 19:12:45.755     
   ID    Z sym.   atoms
    1    6 C      1-12
    2    1 H      13-38

           -------------------------------------------------
          |                Calculation Setup                |
           -------------------------------------------------

          program call               : xtb opt.xyz --gfn 2 --hess --norestart
          hostname                   : 756d39058c4f
          coordinate file            : opt.xyz
          random seed                :            1006227800


           -------------------------------------------------
          |                 G F N 2 - x T B                 |
           -------------------------------------------------

        Reference                      10.1021/acs.jctc.8b01176
      * Hamiltonian:
        H0-scaling (s, p, d)           1.850000    2.230000    2.230000
        zeta-weighting                 0.500000
      * Dispersion:
        s8                             2.700000
        a1                             0.520000
        a2                             5.000000
        s9                             5.000000
      * Repulsion:
        kExp                           1.500000    1.000000
        rExp                           1.000000
      * Coulomb:
        alpha                          2.000000
        third order                    shell-resolved
        anisotropic                    true
        a3                             3.000000
        a5                             4.000000
        cn-shift                       1.200000
        cn-exp                         4.000000
        max-rad                        5.000000


          ...................................................
          :                      SETUP                      :
          :.................................................:
          :  # basis functions                  74          :
          :  # atomic orbitals                  74          :
          :  # shells                           50          :
          :  # electrons                        74          :
          :  max. iterations                   250          :
          :  Hamiltonian                  GFN2-xTB          :
          :  restarted?                      false          :
          :  GBSA solvation                  false          :
          :  PC potential                    false          :
          :  electronic temp.          300.0000000     K    :
          :  accuracy                    1.0000000          :
          :  -> integral cutoff          0.2500000E+02      :
          :  -> integral neglect         0.1000000E-07      :
          :  -> SCF convergence          0.1000000E-05 Eh   :
          :  -> wf. convergence          0.1000000E-03 e    :
          :  Broyden damping             0.4000000          :
          :  net charge                          0          :
          :  unpaired electrons                  0          :
          ...................................................

 iter      E             dE          RMSdq      gap      omega  full diag
   1    -39.4633523 -0.394634E+02  0.262E+00   11.98       0.0  T
   2    -39.5631370 -0.997846E-01  0.145E+00   12.04       1.0  T
   3    -39.5646092 -0.147223E-02  0.748E-01   12.07       1.0  T
   4    -39.5648809 -0.271692E-03  0.828E-02   12.09       1.0  T
   5    -39.5648883 -0.742405E-05  0.429E-02   12.09       1.0  T
   6    -39.5648902 -0.185308E-05  0.192E-03   12.08       8.4  T
   7    -39.5648902 -0.474456E-07  0.803E-04   12.08      20.2  T
   8    -39.5648902 -0.141883E-08  0.317E-04   12.08      51.2  T

   *** convergence criteria satisfied after 8 iterations ***

         #    Occupation            Energy/Eh            Energy/eV
      -------------------------------------------------------------
         1        2.0000           -0.6231924             -16.9579
       ...           ...                  ...                  ...
        31        2.0000           -0.4273209             -11.6280
        32        2.0000           -0.4260900             -11.5945
        33        2.0000           -0.4234386             -11.5224
        34        2.0000           -0.4183694             -11.3844
        35        2.0000           -0.4165539             -11.3350
        36        2.0000           -0.4165310             -11.3344
        37        2.0000           -0.4095590             -11.1447 (HOMO)
        38                          0.0345282               0.9396 (LUMO)
        39                          0.0763281               2.0770
        40                          0.1015624               2.7637
        41                          0.1135130               3.0888
        42                          0.1135398               3.0896
       ...                                ...                  ...
        74                          0.3265180               8.8850
      -------------------------------------------------------------
                  HL-Gap            0.4440872 Eh           12.0842 eV
             Fermi-level           -0.1875154 Eh           -5.1026 eV

 SCC (total)                   0 d,  0 h,  0 min,  0.071 sec
 SCC setup                      ...        0 min,  0.000 sec (  0.205%)
 Dispersion                     ...        0 min,  0.001 sec (  0.721%)
 classical contributions        ...        0 min,  0.000 sec (  0.051%)
 integral evaluation            ...        0 min,  0.005 sec (  7.419%)
 iterations                     ...        0 min,  0.030 sec ( 42.423%)
 molecular gradient             ...        0 min,  0.028 sec ( 39.846%)
 printout                       ...        0 min,  0.007 sec (  9.308%)

         :::::::::::::::::::::::::::::::::::::::::::::::::::::
         ::                     SUMMARY                     ::
         :::::::::::::::::::::::::::::::::::::::::::::::::::::
         :: total energy             -38.980259889372 Eh    ::
         :: gradient norm              0.000285844965 Eh/a0 ::
         :: HOMO-LUMO gap             12.084227887981 eV    ::
         ::.................................................::
         :: SCC energy               -39.565160021395 Eh    ::
         :: -> isotropic ES            0.006644429357 Eh    ::
         :: -> anisotropic ES          0.012489429196 Eh    ::
         :: -> anisotropic XC          0.023763329156 Eh    ::
         :: -> dispersion             -0.023719147995 Eh    ::
         :: repulsion energy           0.584900132022 Eh    ::
         :: add. restraining           0.000000000000 Eh    ::
         :: total charge               0.000000000000 e     ::
         :::::::::::::::::::::::::::::::::::::::::::::::::::::

           ------------------------------------------------- 
          |                Numerical Hessian                |
           ------------------------------------------------- 
step length          :   0.00500
SCC accuracy         :   0.30000
Hessian scale factor :   1.00000
frozen atoms in %    :   0.00000    0
RMS gradient         :   0.00029
estimated CPU  time      0.15 min
estimated wall time      0.15 min

writing file <hessian>, containing the non-mass-weighted Hessian matrix in atomic units (Eₕ/Bohr²).

 projected vibrational frequencies (cm⁻¹)
eigval :       -0.00    -0.00    -0.00     0.00     0.00     0.00
eigval :       19.75    36.85    37.60    53.02    80.92    93.28
eigval :       98.05   119.21   130.04   149.44   154.19   180.95
eigval :      190.88   231.67   231.93   277.46   346.87   384.85
eigval :      445.10   488.76   507.44   768.52   768.83   772.66
eigval :      783.69   805.27   838.27   879.73   924.58   940.23
eigval :      941.23   968.02  1005.35  1031.60  1038.81  1043.40
eigval :     1074.55  1076.01  1101.99  1103.05  1106.76  1113.77
eigval :     1116.55  1128.29  1141.98  1198.37  1206.76  1221.04
eigval :     1224.67  1246.88  1250.42  1266.65  1271.12  1278.60
eigval :     1279.59  1287.28  1290.19  1298.15  1298.58  1307.77
eigval :     1333.84  1355.37  1370.59  1378.15  1378.84  1380.33
eigval :     1415.91  1415.92  1495.13  1495.16  1496.65  1496.80
eigval :     1499.01  1499.18  1501.10  1502.12  1502.84  1504.66
eigval :     1504.67  1505.90  1507.88  1507.99  2952.97  2953.33
eigval :     2954.60  2956.65  2959.24  2962.62  2966.96  2971.67
eigval :     2971.86  2972.03  2973.54  2973.62  2976.04  2976.32
eigval :     2976.55  2978.69  2980.74  2982.22  2986.45  2990.78
eigval :     3030.75  3030.77  3033.21  3033.24  3038.49  3038.58
           -------------------------------------------------
          |                Property Printout                |
           -------------------------------------------------

    * Orbital Energies and Occupations

         #    Occupation            Energy/Eh            Energy/eV
      -------------------------------------------------------------
         1        2.0000           -0.6231934             -16.9580
       ...           ...                  ...                  ...
        25        2.0000           -0.4527902             -12.3210
        26        2.0000           -0.4455537             -12.1241
        27        2.0000           -0.4437756             -12.0757
        28        2.0000           -0.4340069             -11.8099
        29        2.0000           -0.4325048             -11.7691
        30        2.0000           -0.4312465             -11.7348
        31        2.0000           -0.4273227             -11.6280
        32        2.0000           -0.4260906             -11.5945
        33        2.0000           -0.4234398             -11.5224
        34        2.0000           -0.4183702             -11.3844
        35        2.0000           -0.4165541             -11.3350
        36        2.0000           -0.4165313             -11.3344
        37        2.0000           -0.4095602             -11.1447 (HOMO)
        38                          0.0345270               0.9395 (LUMO)
        39                          0.0763263               2.0769
        40                          0.1015624               2.7637
        41                          0.1135123               3.0888
        42                          0.1135394               3.0896
        43                          0.1165331               3.1710
        44                          0.1197568               3.2587
        45                          0.1320819               3.5941
        46                          0.1336152               3.6359
        47                          0.1392660               3.7896
        48                          0.1425773               3.8797
       ...                                ...                  ...
        74                          0.3265178               8.8850
      -------------------------------------------------------------
                  HL-Gap            0.4440873 Eh           12.0842 eV
             Fermi-level           -0.1875166 Eh           -5.1026 eV

     #   Z          covCN         q      C6AA      α(0)
     1   6          3.752    -0.102    22.511     6.766
     2   6          3.801    -0.053    21.523     6.605
     3   6          3.803    -0.059    21.634     6.622
     4   6          3.803    -0.058    21.623     6.620
     5   6          3.803    -0.058    21.618     6.619
     6   6          3.803    -0.058    21.620     6.620
     7   6          3.803    -0.058    21.620     6.620
     8   6          3.803    -0.058    21.618     6.619
     9   6          3.803    -0.058    21.623     6.620
    10   6          3.803    -0.059    21.634     6.622
    11   6          3.801    -0.053    21.523     6.605
    12   6          3.752    -0.102    22.511     6.766
    13   1          0.925     0.033     2.550     2.497
    14   1          0.925     0.033     2.541     2.493
    15   1          0.925     0.033     2.541     2.493
    16   1          0.924     0.028     2.608     2.526
    17   1          0.924     0.028     2.608     2.526
    18   1          0.924     0.030     2.590     2.517
    19   1          0.924     0.030     2.590     2.517
    20   1          0.924     0.029     2.607     2.525
    21   1          0.924     0.029     2.607     2.525
    22   1          0.924     0.029     2.600     2.522
    23   1          0.924     0.029     2.600     2.522
    24   1          0.924     0.029     2.600     2.522
    25   1          0.924     0.029     2.600     2.522
    26   1          0.924     0.029     2.600     2.522
    27   1          0.924     0.029     2.600     2.522
    28   1          0.924     0.029     2.600     2.522
    29   1          0.924     0.029     2.600     2.522
    30   1          0.924     0.029     2.607     2.525
    31   1          0.924     0.029     2.607     2.525
    32   1          0.924     0.030     2.590     2.517
    33   1          0.924     0.030     2.590     2.517
    34   1          0.924     0.028     2.608     2.526
    35   1          0.924     0.028     2.608     2.526
    36   1          0.925     0.033     2.541     2.493
    37   1          0.925     0.033     2.550     2.497
    38   1          0.925     0.033     2.541     2.493

 Mol. C6AA /au·bohr⁶  :       9534.157117
 Mol. C8AA /au·bohr⁸  :     198732.201914
 Mol. α(0) /au        :        145.113883


Wiberg/Mayer (AO) data.
largest (>0.10) Wiberg bond orders for each atom

 ---------------------------------------------------------------------------
     #   Z sym  total        # sym  WBO       # sym  WBO       # sym  WBO
 ---------------------------------------------------------------------------
     1   6      3.997 --     2      1.019    15      0.988    14      0.988
                            13      0.988
     2   6      3.998 --     1      1.019     3      1.008    17      0.979
                            16      0.979
     3   6      3.997 --     2      1.008     4      1.007    18      0.978
                            19      0.978
     4   6      3.997 --     3      1.007     5      1.007    21      0.978
                            20      0.978
     5   6      3.997 --     4      1.007     6      1.007    22      0.978
                            23      0.978
     6   6      3.997 --     7      1.007     5      1.007    25      0.978
                            24      0.977
     7   6      3.997 --     6      1.007     8      1.007    26      0.978
                            27      0.977
     8   6      3.997 --     9      1.007     7      1.007    29      0.978
                            28      0.978
     9   6      3.997 --    10      1.007     8      1.007    30      0.978
                            31      0.978
    10   6      3.997 --    11      1.008     9      1.007    33      0.978
                            32      0.978
    11   6      3.998 --    12      1.019    10      1.008    34      0.979
                            35      0.979
    12   6      3.997 --    11      1.019    38      0.988    36      0.988
                            37      0.988
    13   1      0.999 --     1      0.988
    14   1      0.999 --     1      0.988
    15   1      0.999 --     1      0.988
    16   1      0.999 --     2      0.979
    17   1      0.999 --     2      0.979
    18   1      0.999 --     3      0.978
    19   1      0.999 --     3      0.978
    20   1      0.999 --     4      0.978
    21   1      0.999 --     4      0.978
    22   1      0.999 --     5      0.978
    23   1      0.999 --     5      0.978
    24   1      0.999 --     6      0.977
    25   1      0.999 --     6      0.978
    26   1      0.999 --     7      0.978
    27   1      0.999 --     7      0.977
    28   1      0.999 --     8      0.978
    29   1      0.999 --     8      0.978
    30   1      0.999 --     9      0.978
    31   1      0.999 --     9      0.978
    32   1      0.999 --    10      0.978
    33   1      0.999 --    10      0.978
    34   1      0.999 --    11      0.979
    35   1      0.999 --    11      0.979
    36   1      0.999 --    12      0.988
    37   1      0.999 --    12      0.988
    38   1      0.999 --    12      0.988
 ---------------------------------------------------------------------------

Topologies differ in total number of bonds
Writing topology from bond orders to xtbtopo.mol

molecular dipole:
                 x           y           z       tot (Debye)
 q only:        0.000      -0.000      -0.000
   full:        0.000      -0.000      -0.000       0.000
molecular quadrupole (traceless):
                xx          xy          yy          xz          yz          zz
 q only:        0.807       0.152      -0.681      -0.377      -0.271      -0.127
  q+dip:       -2.521      -0.554       2.781       1.351       1.496      -0.260
   full:       -0.964      -0.210       1.165       0.509       0.672      -0.201

           -------------------------------------------------
          |               Frequency Printout                |
           -------------------------------------------------
 projected vibrational frequencies (cm⁻¹)
eigval :       -0.00    -0.00    -0.00     0.00     0.00     0.00
eigval :       19.75    36.85    37.60    53.02    80.92    93.28
eigval :       98.05   119.21   130.04   149.44   154.19   180.95
eigval :      190.88   231.67   231.93   277.46   346.87   384.85
eigval :      445.10   488.76   507.44   768.52   768.83   772.66
eigval :      783.69   805.27   838.27   879.73   924.58   940.23
eigval :      941.23   968.02  1005.35  1031.60  1038.81  1043.40
eigval :     1074.55  1076.01  1101.99  1103.05  1106.76  1113.77
eigval :     1116.55  1128.29  1141.98  1198.37  1206.76  1221.04
eigval :     1224.67  1246.88  1250.42  1266.65  1271.12  1278.60
eigval :     1279.59  1287.28  1290.19  1298.15  1298.58  1307.77
eigval :     1333.84  1355.37  1370.59  1378.15  1378.84  1380.33
eigval :     1415.91  1415.92  1495.13  1495.16  1496.65  1496.80
eigval :     1499.01  1499.18  1501.10  1502.12  1502.84  1504.66
eigval :     1504.67  1505.90  1507.88  1507.99  2952.97  2953.33
eigval :     2954.60  2956.65  2959.24  2962.62  2966.96  2971.67
eigval :     2971.86  2972.03  2973.54  2973.62  2976.04  2976.32
eigval :     2976.55  2978.69  2980.74  2982.22  2986.45  2990.78
eigval :     3030.75  3030.77  3033.21  3033.24  3038.49  3038.58
 reduced masses (amu)
    1:      4.17    2:      3.35    3:      2.89    4:      3.66    5:      3.82    6:      2.42
    7:      3.58    8:      3.65    9:      1.51   10:      3.16   11:      1.56   12:      2.71
   13:      3.41   14:      1.66   15:      2.32   16:      1.87   17:      2.09   18:      3.21
   19:      4.16   20:      1.12   21:      1.12   22:      3.06   23:      3.46   24:      3.22
   25:      3.01   26:      3.30   27:      3.06   28:      1.06   29:      1.06   30:      1.08
   31:      1.10   32:      1.14   33:      1.17   34:      1.19   35:      1.19   36:      1.74
   37:      1.74   38:      1.16   39:      1.11   40:      1.04   41:      4.44   42:      5.43
   43:      3.03   44:      4.26   45:      3.27   46:      2.09   47:      2.50   48:      2.56
   49:      2.54   50:      2.16   51:      2.98   52:      1.98   53:      1.75   54:      1.26
   55:      1.53   56:      1.37   57:      1.28   58:      1.15   59:      1.10   60:      1.06
   61:      1.28   62:      1.16   63:      1.08   64:      1.13   65:      1.11   66:      1.29
   67:      1.33   68:      1.39   69:      1.47   70:      1.70   71:      1.58   72:      1.65
   73:      1.23   74:      1.23   75:      1.09   76:      1.09   77:      1.08   78:      1.10
   79:      1.10   80:      1.08   81:      1.10   82:      1.10   83:      1.08   84:      1.05
   85:      1.05   86:      1.07   87:      1.07   88:      1.06   89:      1.09   90:      1.09
   91:      1.09   92:      1.09   93:      1.10   94:      1.10   95:      1.10   96:      1.10
   97:      1.05   98:      1.05   99:      1.05  100:      1.05  101:      1.05  102:      1.10
  103:      1.05  104:      1.05  105:      1.11  106:      1.05  107:      1.05  108:      1.05
  109:      1.09  110:      1.09  111:      1.09  112:      1.09  113:      1.03  114:      1.03
 IR intensities (km·mol⁻¹)
    1:      0.00    2:      0.00    3:      0.00    4:      0.00    5:      0.00    6:      0.00
    7:      0.00    8:      0.02    9:      0.00   10:      0.00   11:      0.00   12:      0.00
Refinement of some symmetry elements was terminated before convergence was reached.
Some symmetry elements may remain unidentified.
Molecule has the following symmetry elements: (i) (C2) (sigma) 
It seems to be the C2h point group
   13:      0.00   14:      0.00   15:      0.00   16:      0.00   17:      0.00   18:      0.09
   19:      0.00   20:      0.00   21:      0.00   22:      0.00   23:      0.15   24:      0.11
   25:      0.00   26:      0.00   27:      0.11   28:     21.26   29:      0.00   30:      5.11
   31:      0.00   32:      2.16   33:      0.00   34:      1.47   35:      0.00   36:      0.00
   37:      7.15   38:      0.75   39:      0.00   40:      0.03   41:      0.56   42:      0.00
   43:      0.00   44:      0.32   45:      0.00   46:      0.00   47:      0.74   48:      0.16
   49:      0.00   50:      8.25   51:      0.00   52:      0.00   53:      0.51   54:      0.92
   55:      0.00   56:      0.23   57:      0.00   58:      0.00   59:      0.00   60:      0.04
   61:      0.70   62:      0.04   63:      0.00   64:      0.00   65:      0.02   66:      0.00
   67:      0.89   68:      0.00   69:      0.71   70:      0.00   71:      0.00   72:      0.29
   73:      0.00   74:      1.71   75:      0.00   76:      0.02   77:      0.21   78:      0.00
   79:      0.18   80:      0.00   81:      0.00   82:      0.13   83:      0.20   84:      4.79
   85:      0.00   86:      0.00   87:      2.69   88:      0.00   89:      0.00   90:      0.06
   91:      0.00   92:      0.19   93:      0.00   94:      1.28   95:      0.00   96:     22.90
   97:      0.04   98:      0.10   99:      0.19  100:      0.00  101:      0.24  102:      0.00
  103:      0.01  104:      0.00  105:    480.64  106:     16.54  107:      0.00  108:    377.55
  109:      0.08  110:    126.55  111:      0.01  112:    123.16  113:     68.67  114:      0.00
 Raman intensities (Ä⁴*amu⁻¹)
    1:      0.00    2:      0.00    3:      0.00    4:      0.00    5:      0.00    6:      0.00
    7:      0.00    8:      0.00    9:      0.00   10:      0.00   11:      0.00   12:      0.00
   13:      0.00   14:      0.00   15:      0.00   16:      0.00   17:      0.00   18:      0.00
   19:      0.00   20:      0.00   21:      0.00   22:      0.00   23:      0.00   24:      0.00
   25:      0.00   26:      0.00   27:      0.00   28:      0.00   29:      0.00   30:      0.00
   31:      0.00   32:      0.00   33:      0.00   34:      0.00   35:      0.00   36:      0.00
   37:      0.00   38:      0.00   39:      0.00   40:      0.00   41:      0.00   42:      0.00
   43:      0.00   44:      0.00   45:      0.00   46:      0.00   47:      0.00   48:      0.00
   49:      0.00   50:      0.00   51:      0.00   52:      0.00   53:      0.00   54:      0.00
   55:      0.00   56:      0.00   57:      0.00   58:      0.00   59:      0.00   60:      0.00
   61:      0.00   62:      0.00   63:      0.00   64:      0.00   65:      0.00   66:      0.00
   67:      0.00   68:      0.00   69:      0.00   70:      0.00   71:      0.00   72:      0.00
   73:      0.00   74:      0.00   75:      0.00   76:      0.00   77:      0.00   78:      0.00
   79:      0.00   80:      0.00   81:      0.00   82:      0.00   83:      0.00   84:      0.00
   85:      0.00   86:      0.00   87:      0.00   88:      0.00   89:      0.00   90:      0.00
   91:      0.00   92:      0.00   93:      0.00   94:      0.00   95:      0.00   96:      0.00
   97:      0.00   98:      0.00   99:      0.00  100:      0.00  101:      0.00  102:      0.00
  103:      0.00  104:      0.00  105:      0.00  106:      0.00  107:      0.00  108:      0.00
  109:      0.00  110:      0.00  111:      0.00  112:      0.00  113:      0.00  114:      0.00
 output can be read by thermo (or use thermo option).
 writing <g98.out> molden fake output.
 recommended (thermochemical) frequency scaling factor: 1.0
           -------------------------------------------------
          |             Thermodynamic Functions             |
           -------------------------------------------------

c2h symmetry found (for desy threshold:  0.10E+00) used in thermo

          ...................................................
          :                      SETUP                      :
          :.................................................:
          :  # frequencies                         108      :
          :  # imaginary freq.                       0      :
          :  linear?                             false      :
          :  only rotor calc.                    false      :
          :  symmetry                              c2h      :
          :  rotational number                       2      :
          :  scaling factor                  1.0000000      :
          :  rotor cutoff                   50.0000000 cm⁻¹ :
          :  imag. cutoff                  -20.0000000 cm⁻¹ :
          :.................................................:

    mode    ω/cm⁻¹     T·S(HO)/kcal·mol⁻¹    T·S(FR)/kcal·mol⁻¹   T·S(vib)
   ------------------------------------------------------------------------
       1     19.75    -1.98558 (  2.37%)    -1.33168 ( 97.63%)    -1.34721
       2     36.85    -1.61640 ( 22.79%)    -1.14687 ( 77.21%)    -1.25387
       3     37.60    -1.60462 ( 24.22%)    -1.14096 ( 75.78%)    -1.25327
       4     53.02    -1.40178 ( 55.83%)    -1.03916 ( 44.17%)    -1.24161
       5     80.92    -1.15337 ( 87.28%)    -0.91390 ( 12.72%)    -1.12291
       6     93.28    -1.07035 ( 92.38%)    -0.87178 (  7.62%)    -1.05521
       7     98.05    -1.04135 ( 93.67%)    -0.85702 (  6.33%)    -1.02967
       8    119.21    -0.92817 ( 97.00%)    -0.79913 (  3.00%)    -0.92429
       9    130.04    -0.87817 ( 97.86%)    -0.77337 (  2.14%)    -0.87593
      10    149.44    -0.79884 ( 98.76%)    -0.73219 (  1.24%)    -0.79802
      11    154.19    -0.78113 ( 98.91%)    -0.72293 (  1.09%)    -0.78049
      12    180.95    -0.69127 ( 99.42%)    -0.67551 (  0.58%)    -0.69118
      13    190.88    -0.66167 ( 99.53%)    -0.65968 (  0.47%)    -0.66166
      14    231.67    -0.55633 ( 99.78%)    -0.60231 (  0.22%)    -0.55643
      15    231.93    -0.55574 ( 99.78%)    -0.60198 (  0.22%)    -0.55584
      16    277.46    -0.46191 ( 99.89%)    -0.54888 (  0.11%)    -0.46200
   ------------------------------------------------------------------------

   temp. (K)  partition function   enthalpy   heat capacity  entropy
                                   cal/mol     cal/K/mol   cal/K/mol   J/K/mol
 298.15  VIB  0.174E+08             8679.231     48.845     56.950
         ROT  0.109E+07              888.727      2.981     30.615
         INT  0.190E+14             9567.959     51.826     87.564
         TR   0.680E+26             1481.212      4.968     41.306
         TOT                       11049.1711    56.7936   128.8699   539.1917

       T/K    H(0)-H(T)+PV         H(T)/Eh          T*S/Eh         G(T)/Eh
   ------------------------------------------------------------------------
    298.15    0.176080E-01    0.373748E+00    0.612303E-01    0.312518E+00
   ------------------------------------------------------------------------

         :::::::::::::::::::::::::::::::::::::::::::::::::::::
         ::                  THERMODYNAMIC                  ::
         :::::::::::::::::::::::::::::::::::::::::::::::::::::
         :: total free energy         -38.667742057516 Eh   ::
         ::.................................................::
         :: total energy              -38.980259889559 Eh   ::
         :: zero point energy           0.356140114100 Eh   ::
         :: G(RRHO) w/o ZPVE           -0.043622282056 Eh   ::
         :: G(RRHO) contrib.            0.312517832044 Eh   ::
         :::::::::::::::::::::::::::::::::::::::::::::::::::::

           -------------------------------------------------
          | TOTAL ENERGY              -38.980259889559 Eh   |
          | TOTAL ENTHALPY            -38.606511800529 Eh   |
          | TOTAL FREE ENERGY         -38.667742057516 Eh   |
          | GRADIENT NORM               0.000288172517 Eh/α |
          | HOMO-LUMO GAP              12.084230098981 eV   |
           -------------------------------------------------

------------------------------------------------------------------------
 * finished run on 2026/08/28 at 19:12:53.596     
------------------------------------------------------------------------
Note: The following floating-point exceptions are signalling: IEEE_UNDERFLOW_FLAG
normal termination of xtb
 total:
 * wall-time:     0 d,  0 h,  0 min,  7.841 sec
 *  cpu-time:     0 d,  0 h,  0 min,  7.660 sec
 * ratio c/w:     0.977 speedup
 SCF:
 * wall-time:     0 d,  0 h,  0 min,  0.072 sec
 *  cpu-time:     0 d,  0 h,  0 min,  0.049 sec
 * ratio c/w:     0.690 speedup
 analytical hessian:
 * wall-time:     0 d,  0 h,  0 min,  7.669 sec
 *  cpu-time:     0 d,  0 h,  0 min,  7.562 sec
 * ratio c/w:     0.986 speedup

