      -----------------------------------------------------------      
     |                   =====================                   |     
     |                           x T B                           |     
     |                   =====================                   |     
     |                         S. Grimme                         |     
     |          Mulliken Center for Theoretical Chemistry        |     
     |                    University of Bonn                     |     
      -----------------------------------------------------------      

   * xtb version 6.7.1 (unknown) compiled by 'root@buildkitsandbox' on 2026-08-28

   xtb is free software: you can redistribute it and/or modify it under
   the terms of the GNU Lesser General Public License as published by
   the Free Software Foundation, either version 3 of the License, or
   (at your option) any later version.
   
   xtb is distributed in the hope that it will be useful,
   but WITHOUT ANY WARRANTY; without even the implied warranty of
   MERCHANTABILITY or FITNESS FOR A PARTICULAR PURPOSE.  See the
   GNU Lesser General Public License for more details.
   
   Cite this work as:
   * C. Bannwarth, E. Caldeweyher, S. Ehlert, A. Hansen, P. Pracht,
     J. Seibert, S. Spicher, S. Grimme, WIREs Comput. Mol. Sci., 2020, 11,
     e01493. DOI: 10.1002/wcms.1493
   
   for GFN2-xTB:
   * C. Bannwarth, S. Ehlert and S. Grimme., J. Chem. Theory Comput., 2019,
     15, 1652-1671. DOI: 10.1021/acs.jctc.8b01176
   for GFN1-xTB:
   * S. Grimme, C. Bannwarth, P. Shushkov, J. Chem. Theory Comput., 2017,
     13, 1989-2009. DOI: 10.1021/acs.jctc.7b00118
   for GFN0-xTB:
   * P. Pracht, E. Caldeweyher, S. Ehlert, S. Grimme, ChemRxiv, 2019, preprint.
     DOI: 10.26434/chemrxiv.8326202.v1
   for GFN-FF:
   * S. Spicher and S. Grimme, Angew. Chem. Int. Ed., 2020, 59, 15665-15673.
     DOI: 10.1002/anie.202004239
   
   for ALPB and GBSA implicit solvation:
   * S. Ehlert, M. Stahn, S. Spicher, S. Grimme, J. Chem. Theory Comput.,
     2021, 17, 4250-4261. DOI: 10.1021/acs.jctc.1c00471
   
   for ddCOSMO and CPCM-X implicit solvation:
   * M. Stahn, S. Ehlert, S. Grimme, J. Phys. Chem. A,
     2023, XX, XXXX-XXXX. DOI: 10.1021/acs.jpca.3c04382
   
   for DFT-D4:
   * E. Caldeweyher, C. Bannwarth and S. Grimme, J. Chem. Phys., 2017,
     147, 034112. DOI: 10.1063/1.4993215
   * E. Caldeweyher, S. Ehlert, A. Hansen, H. Neugebauer, S. Spicher,
     C. Bannwarth and S. Grimme, J. Chem. Phys., 2019, 150, 154122.
     DOI: 10.1063/1.5090222
   * E. Caldeweyher, J.-M. Mewes, S. Ehlert and S. Grimme, Phys. Chem. Chem. Phys.
     2020, 22, 8499-8512. DOI: 10.1039/D0CP00502A
   
   for sTDA-xTB:
   * S. Grimme and C. Bannwarth, J. Chem. Phys., 2016, 145, 054103.
     DOI: 10.1063/1.4959605
   
   in the mass-spec context:
   * V. Asgeirsson, C. Bauer and S. Grimme, Chem. Sci., 2017, 8, 4879.
     DOI: 10.1039/c7sc00601b
   * J. Koopman and S. Grimme, ACS Omega 2019, 4, 12, 15120-15133.
     DOI: 10.1021/acsomega.9b02011
   
   for metadynamics refer to:
   * S. Grimme, J. Chem. Theory Comput., 2019, 155, 2847-2862
     DOI: 10.1021/acs.jctc.9b00143
   
   for SPH calculations refer to:
   * S. Spicher and S. Grimme, J. Chem. Theory Comput., 2021, 17, 1701-1714
     DOI: 10.1021/acs.jctc.0c01306
   
   for ONIOM refer to:
   * C. Plett, A. Katbashev, S. Ehlert, S. Grimme, M. Bursch,
     Phys. Chem. Chem. Phys., 2023, 25, 17860-17868. DOI: 10.1039/D3CP02178E
   
   for DIPRO refer to:
   * J. Kohn, N. Gildemeister, S. Grimme, D. Fazzi, A. Hansen,
     J. Chem. Phys. 159, 144106 (2023). DOI: 10.1063/5.0167484
   
   for PTB refer to:
   * S. Grimme, M. Mueller, A. Hansen, J. Chem. Phys., 2023, 158, 124111.
     DOI: 10.1063/5.0137838
   
   with help from (in alphabetical order)
   P. Atkinson, C. Bannwarth, F. Bohle, G. Brandenburg, E. Caldeweyher,
   M. Checinski, S. Dohm, S. Ehlert, S. Ehrlich, M. Friede, T. Froitzheim,
   I. Gerasimov, C. Hölzer, A. Katbashev, J. Kohn, J. Koopman, C. Lavigne,
   S. Lehtola, F. März, M. Müller, F. Musil, H. Neugebauer, J. Pisarek,
   C. Plett, P. Pracht, F. Pultar, J. Seibert, P. Shushkov, S. Spicher,
   M. Stahn, M. Steiner, T. Strunk, J. Stückrath, T. Rose, and J. Unsleber
   
 * started run on 2026/08/28 at 19:18:19.624     
   ID    Z sym.   atoms
    1    6 C      1-24
    2    1 H      25-74

           -------------------------------------------------
          |                Calculation Setup                |
           -------------------------------------------------

          program call               : xtb opt.xyz --gfn 2 --hess --norestart
          hostname                   : 756d39058c4f
          coordinate file            : opt.xyz
          random seed                :            1009286558


           -------------------------------------------------
          |                 G F N 2 - x T B                 |
           -------------------------------------------------

        Reference                      10.1021/acs.jctc.8b01176
      * Hamiltonian:
        H0-scaling (s, p, d)           1.850000    2.230000    2.230000
        zeta-weighting                 0.500000
      * Dispersion:
        s8                             2.700000
        a1                             0.520000
        a2                             5.000000
        s9                             5.000000
      * Repulsion:
        kExp                           1.500000    1.000000
        rExp                           1.000000
      * Coulomb:
        alpha                          2.000000
        third order                    shell-resolved
        anisotropic                    true
        a3                             3.000000
        a5                             4.000000
        cn-shift                       1.200000
        cn-exp                         4.000000
        max-rad                        5.000000


          ...................................................
          :                      SETUP                      :
          :.................................................:
          :  # basis functions                 146          :
          :  # atomic orbitals                 146          :
          :  # shells                           98          :
          :  # electrons                       146          :
          :  max. iterations                   250          :
          :  Hamiltonian                  GFN2-xTB          :
          :  restarted?                      false          :
          :  GBSA solvation                  false          :
          :  PC potential                    false          :
          :  electronic temp.          300.0000000     K    :
          :  accuracy                    1.0000000          :
          :  -> integral cutoff          0.2500000E+02      :
          :  -> integral neglect         0.1000000E-07      :
          :  -> SCF convergence          0.1000000E-05 Eh   :
          :  -> wf. convergence          0.1000000E-03 e    :
          :  Broyden damping             0.4000000          :
          :  net charge                          0          :
          :  unpaired electrons                  0          :
          ...................................................

 iter      E             dE          RMSdq      gap      omega  full diag
   1    -77.9046806 -0.779047E+02  0.256E+00   11.53       0.0  T
   2    -78.0943267 -0.189646E+00  0.139E+00   11.61       1.0  T
   3    -78.0973559 -0.302917E-02  0.724E-01   11.64       1.0  T
   4    -78.0978786 -0.522654E-03  0.793E-02   11.66       1.0  T
   5    -78.0978845 -0.590718E-05  0.365E-02   11.66       1.0  T
   6    -78.0978889 -0.438999E-05  0.171E-03   11.66       6.8  T
   7    -78.0978889 -0.678000E-07  0.621E-04   11.66      18.7  T
   8    -78.0978889 -0.223343E-08  0.311E-04   11.66      37.4  T

   *** convergence criteria satisfied after 8 iterations ***

         #    Occupation            Energy/Eh            Energy/eV
      -------------------------------------------------------------
         1        2.0000           -0.6236370             -16.9700
       ...           ...                  ...                  ...
        67        2.0000           -0.4168177             -11.3422
        68        2.0000           -0.4166425             -11.3374
        69        2.0000           -0.4164933             -11.3334
        70        2.0000           -0.4162158             -11.3258
        71        2.0000           -0.4162105             -11.3257
        72        2.0000           -0.4118840             -11.2079
        73        2.0000           -0.4043031             -11.0016 (HOMO)
        74                          0.0240374               0.6541 (LUMO)
        75                          0.0379516               1.0327
        76                          0.0595860               1.6214
        77                          0.0864651               2.3528
        78                          0.0977744               2.6606
       ...                                ...                  ...
       146                          0.3288265               8.9478
      -------------------------------------------------------------
                  HL-Gap            0.4283405 Eh           11.6557 eV
             Fermi-level           -0.1901328 Eh           -5.1738 eV

 SCC (total)                   0 d,  0 h,  0 min,  0.206 sec
 SCC setup                      ...        0 min,  0.000 sec (  0.146%)
 Dispersion                     ...        0 min,  0.001 sec (  0.720%)
 classical contributions        ...        0 min,  0.000 sec (  0.061%)
 integral evaluation            ...        0 min,  0.015 sec (  7.518%)
 iterations                     ...        0 min,  0.141 sec ( 68.206%)
 molecular gradient             ...        0 min,  0.040 sec ( 19.294%)
 printout                       ...        0 min,  0.008 sec (  4.045%)

         :::::::::::::::::::::::::::::::::::::::::::::::::::::
         ::                     SUMMARY                     ::
         :::::::::::::::::::::::::::::::::::::::::::::::::::::
         :: total energy             -76.953155359212 Eh    ::
         :: gradient norm              0.000131802061 Eh/a0 ::
         :: HOMO-LUMO gap             11.655738230986 eV    ::
         ::.................................................::
         :: SCC energy               -78.098694719880 Eh    ::
         :: -> isotropic ES            0.012120375517 Eh    ::
         :: -> anisotropic ES          0.023878691953 Eh    ::
         :: -> anisotropic XC          0.045850693595 Eh    ::
         :: -> dispersion             -0.050417631634 Eh    ::
         :: repulsion energy           1.145539360669 Eh    ::
         :: add. restraining           0.000000000000 Eh    ::
         :: total charge              -0.000000000000 e     ::
         :::::::::::::::::::::::::::::::::::::::::::::::::::::

           ------------------------------------------------- 
          |                Numerical Hessian                |
           ------------------------------------------------- 
step length          :   0.00500
SCC accuracy         :   0.30000
Hessian scale factor :   1.00000
frozen atoms in %    :   0.00000    0
RMS gradient         :   0.00013
estimated CPU  time      0.88 min
estimated wall time      0.89 min

writing file <hessian>, containing the non-mass-weighted Hessian matrix in atomic units (Eₕ/Bohr²).

 projected vibrational frequencies (cm⁻¹)
eigval :       -0.00    -0.00    -0.00     0.00     0.00     0.00
eigval :        3.99     8.97    13.80    20.74    25.88    27.52
eigval :       40.59    45.04    50.43    59.80    64.98    79.14
eigval :       81.76    85.60    97.88    98.02   105.77   115.34
eigval :      119.18   124.40   130.91   140.29   144.02   152.49
eigval :      153.95   160.01   160.19   161.56   191.66   208.51
eigval :      233.73   233.73   255.05   281.57   305.33   355.40
eigval :      358.79   404.08   422.25   450.51   469.55   491.58
eigval :      502.62   519.98   523.05   768.56   768.69   768.88
eigval :      769.12   769.89   772.18   776.23   782.56   791.60
eigval :      803.64   818.52   836.23   856.29   877.93   900.78
eigval :      923.92   940.93   940.93   946.66   968.34   988.34
eigval :     1006.03  1020.78  1028.10  1030.15  1031.92  1037.92
eigval :     1038.81  1043.85  1053.11  1060.46  1072.07  1076.59
eigval :     1090.73  1092.24  1100.11  1102.22  1103.17  1105.84
eigval :     1109.09  1111.21  1112.80  1115.06  1116.62  1117.25
eigval :     1119.69  1136.10  1138.37  1197.71  1200.02  1205.03
eigval :     1206.98  1212.63  1218.52  1222.22  1232.00  1233.08
eigval :     1244.50  1245.94  1255.80  1259.99  1265.55  1266.76
eigval :     1269.36  1274.09  1274.52  1275.78  1280.74  1283.44
eigval :     1287.28  1288.14  1289.82  1293.27  1294.90  1297.87
eigval :     1298.63  1300.62  1300.95  1301.97  1315.37  1327.98
eigval :     1339.88  1350.41  1359.54  1367.22  1373.04  1377.09
eigval :     1377.31  1378.27  1379.50  1379.56  1380.46  1380.60
eigval :     1416.18  1416.20  1494.74  1494.77  1495.20  1495.27
eigval :     1495.90  1496.06  1496.77  1497.14  1497.81  1498.38
eigval :     1499.07  1499.56  1500.58  1500.62  1501.46  1501.97
eigval :     1502.46  1502.53  1502.71  1504.27  1504.85  1504.85
eigval :     1505.81  1506.94  1508.04  1508.06  2952.78  2952.79
eigval :     2952.97  2953.14  2953.47  2953.98  2954.67  2955.54
eigval :     2956.58  2957.82  2959.21  2960.78  2962.58  2964.55
eigval :     2966.70  2968.96  2971.30  2971.46  2971.47  2971.74
eigval :     2971.77  2972.33  2972.34  2973.23  2973.24  2973.66
eigval :     2974.34  2974.43  2975.62  2975.88  2976.01  2976.89
eigval :     2977.49  2977.93  2978.32  2979.58  2980.49  2981.67
eigval :     2982.25  2983.90  2986.23  2988.56  2990.80  2992.59
eigval :     3029.55  3029.56  3032.04  3032.04  3037.42  3037.44
           -------------------------------------------------
          |                Property Printout                |
           -------------------------------------------------

    * Orbital Energies and Occupations

         #    Occupation            Energy/Eh            Energy/eV
      -------------------------------------------------------------
         1        2.0000           -0.6236388             -16.9701
       ...           ...                  ...                  ...
        61        2.0000           -0.4261301             -11.5956
        62        2.0000           -0.4255670             -11.5803
        63        2.0000           -0.4232965             -11.5185
        64        2.0000           -0.4230447             -11.5116
        65        2.0000           -0.4200899             -11.4312
        66        2.0000           -0.4179766             -11.3737
        67        2.0000           -0.4168181             -11.3422
        68        2.0000           -0.4166434             -11.3374
        69        2.0000           -0.4164934             -11.3334
        70        2.0000           -0.4162167             -11.3258
        71        2.0000           -0.4162111             -11.3257
        72        2.0000           -0.4118852             -11.2080
        73        2.0000           -0.4043043             -11.0017 (HOMO)
        74                          0.0240360               0.6541 (LUMO)
        75                          0.0379504               1.0327
        76                          0.0595847               1.6214
        77                          0.0864635               2.3528
        78                          0.0977740               2.6606
        79                          0.1020417               2.7767
        80                          0.1089770               2.9654
        81                          0.1116168               3.0372
        82                          0.1116340               3.0377
        83                          0.1136630               3.0929
        84                          0.1137225               3.0945
       ...                                ...                  ...
       146                          0.3288261               8.9478
      -------------------------------------------------------------
                  HL-Gap            0.4283403 Eh           11.6557 eV
             Fermi-level           -0.1901341 Eh           -5.1738 eV

     #   Z          covCN         q      C6AA      α(0)
     1   6          3.752    -0.102    22.510     6.766
     2   6          3.801    -0.053    21.523     6.605
     3   6          3.803    -0.059    21.634     6.622
     4   6          3.803    -0.058    21.623     6.620
     5   6          3.803    -0.058    21.619     6.620
     6   6          3.803    -0.058    21.621     6.620
     7   6          3.803    -0.058    21.621     6.620
     8   6          3.803    -0.058    21.622     6.620
     9   6          3.803    -0.058    21.622     6.620
    10   6          3.803    -0.058    21.622     6.620
    11   6          3.803    -0.058    21.622     6.620
    12   6          3.803    -0.058    21.622     6.620
    13   6          3.803    -0.058    21.622     6.620
    14   6          3.803    -0.058    21.622     6.620
    15   6          3.803    -0.058    21.622     6.620
    16   6          3.803    -0.058    21.622     6.620
    17   6          3.803    -0.058    21.622     6.620
    18   6          3.803    -0.058    21.621     6.620
    19   6          3.803    -0.058    21.621     6.620
    20   6          3.803    -0.058    21.619     6.620
    21   6          3.803    -0.058    21.623     6.620
    22   6          3.803    -0.059    21.634     6.622
    23   6          3.801    -0.053    21.523     6.605
    24   6          3.752    -0.102    22.510     6.766
    25   1          0.925     0.033     2.550     2.497
    26   1          0.925     0.033     2.541     2.493
    27   1          0.925     0.033     2.541     2.493
    28   1          0.924     0.028     2.608     2.526
    29   1          0.924     0.028     2.608     2.526
    30   1          0.924     0.030     2.590     2.517
    31   1          0.924     0.030     2.590     2.517
    32   1          0.924     0.029     2.607     2.525
    33   1          0.924     0.029     2.607     2.525
    34   1          0.924     0.029     2.600     2.521
    35   1          0.924     0.029     2.600     2.521
    36   1          0.924     0.029     2.600     2.522
    37   1          0.924     0.029     2.600     2.522
    38   1          0.924     0.029     2.599     2.521
    39   1          0.924     0.029     2.599     2.521
    40   1          0.924     0.029     2.599     2.521
    41   1          0.924     0.029     2.599     2.521
    42   1          0.924     0.029     2.598     2.521
    43   1          0.924     0.029     2.598     2.521
    44   1          0.924     0.029     2.598     2.521
    45   1          0.924     0.029     2.598     2.521
    46   1          0.924     0.029     2.598     2.521
    47   1          0.924     0.029     2.598     2.521
    48   1          0.924     0.029     2.598     2.521
    49   1          0.924     0.029     2.598     2.521
    50   1          0.924     0.029     2.598     2.521
    51   1          0.924     0.029     2.598     2.521
    52   1          0.924     0.029     2.598     2.521
    53   1          0.924     0.029     2.598     2.521
    54   1          0.924     0.029     2.598     2.521
    55   1          0.924     0.029     2.598     2.521
    56   1          0.924     0.029     2.598     2.521
    57   1          0.924     0.029     2.598     2.521
    58   1          0.924     0.029     2.599     2.521
    59   1          0.924     0.029     2.599     2.521
    60   1          0.924     0.029     2.599     2.521
    61   1          0.924     0.029     2.599     2.521
    62   1          0.924     0.029     2.600     2.522
    63   1          0.924     0.029     2.600     2.521
    64   1          0.924     0.029     2.600     2.521
    65   1          0.924     0.029     2.600     2.521
    66   1          0.924     0.029     2.607     2.525
    67   1          0.924     0.029     2.607     2.525
    68   1          0.924     0.030     2.590     2.517
    69   1          0.924     0.030     2.590     2.517
    70   1          0.924     0.028     2.608     2.526
    71   1          0.924     0.028     2.608     2.526
    72   1          0.925     0.033     2.541     2.493
    73   1          0.925     0.033     2.550     2.497
    74   1          0.925     0.033     2.541     2.493

 Mol. C6AA /au·bohr⁶  :      36857.229196
 Mol. C8AA /au·bohr⁸  :     774027.318805
 Mol. α(0) /au        :        285.052190


Wiberg/Mayer (AO) data.
largest (>0.10) Wiberg bond orders for each atom

 ---------------------------------------------------------------------------
     #   Z sym  total        # sym  WBO       # sym  WBO       # sym  WBO
 ---------------------------------------------------------------------------
     1   6      3.997 --     2      1.019    26      0.988    27      0.988
                            25      0.988
     2   6      3.998 --     1      1.019     3      1.008    28      0.979
                            29      0.979
     3   6      3.997 --     2      1.008     4      1.007    31      0.977
                            30      0.977
     4   6      3.997 --     3      1.007     5      1.007    32      0.978
                            33      0.978
     5   6      3.997 --     4      1.007     6      1.007    35      0.978
                            34      0.978
     6   6      3.997 --     5      1.007     7      1.007    36      0.977
                            37      0.977
     7   6      3.997 --     8      1.007     6      1.007    38      0.977
                            39      0.977
     8   6      3.997 --     7      1.007     9      1.007    41      0.977
                            40      0.977
     9   6      3.997 --    10      1.007     8      1.007    42      0.977
                            43      0.977
    10   6      3.997 --    11      1.007     9      1.007    45      0.977
                            44      0.977
    11   6      3.997 --    10      1.007    12      1.007    46      0.977
                            47      0.977
    12   6      3.997 --    13      1.007    11      1.007    48      0.977
                            49      0.977
    13   6      3.997 --    12      1.007    14      1.007    51      0.977
                            50      0.977
    14   6      3.997 --    15      1.007    13      1.007    52      0.977
                            53      0.977
    15   6      3.997 --    14      1.007    16      1.007    55      0.977
                            54      0.977
    16   6      3.997 --    15      1.007    17      1.007    56      0.977
                            57      0.977
    17   6      3.997 --    18      1.007    16      1.007    58      0.977
                            59      0.977
    18   6      3.997 --    17      1.007    19      1.007    61      0.977
                            60      0.977
    19   6      3.997 --    20      1.007    18      1.007    62      0.977
                            63      0.977
    20   6      3.997 --    21      1.007    19      1.007    65      0.978
                            64      0.978
    21   6      3.997 --    22      1.007    20      1.007    66      0.978
                            67      0.978
    22   6      3.997 --    23      1.008    21      1.007    69      0.977
                            68      0.977
    23   6      3.998 --    24      1.019    22      1.008    70      0.979
                            71      0.979
    24   6      3.997 --    23      1.019    72      0.988    74      0.988
                            73      0.988
    25   1      0.999 --     1      0.988
    26   1      0.999 --     1      0.988
    27   1      0.999 --     1      0.988
    28   1      0.999 --     2      0.979
    29   1      0.999 --     2      0.979
    30   1      0.999 --     3      0.977
    31   1      0.999 --     3      0.977
    32   1      0.999 --     4      0.978
    33   1      0.999 --     4      0.978
    34   1      0.999 --     5      0.978
    35   1      0.999 --     5      0.978
    36   1      0.999 --     6      0.977
    37   1      0.999 --     6      0.977
    38   1      0.999 --     7      0.977
    39   1      0.999 --     7      0.977
    40   1      0.999 --     8      0.977
    41   1      0.999 --     8      0.977
    42   1      0.999 --     9      0.977
    43   1      0.999 --     9      0.977
    44   1      0.999 --    10      0.977
    45   1      0.999 --    10      0.977
    46   1      0.999 --    11      0.977
    47   1      0.999 --    11      0.977
    48   1      0.999 --    12      0.977
    49   1      0.999 --    12      0.977
    50   1      0.999 --    13      0.977
    51   1      0.999 --    13      0.977
    52   1      0.999 --    14      0.977
    53   1      0.999 --    14      0.977
    54   1      0.999 --    15      0.977
    55   1      0.999 --    15      0.977
    56   1      0.999 --    16      0.977
    57   1      0.999 --    16      0.977
    58   1      0.999 --    17      0.977
    59   1      0.999 --    17      0.977
    60   1      0.999 --    18      0.977
    61   1      0.999 --    18      0.977
    62   1      0.999 --    19      0.977
    63   1      0.999 --    19      0.977
    64   1      0.999 --    20      0.978
    65   1      0.999 --    20      0.978
    66   1      0.999 --    21      0.978
    67   1      0.999 --    21      0.978
    68   1      0.999 --    22      0.977
    69   1      0.999 --    22      0.977
    70   1      0.999 --    23      0.979
    71   1      0.999 --    23      0.979
    72   1      0.999 --    24      0.988
    73   1      0.999 --    24      0.988
    74   1      0.999 --    24      0.988
 ---------------------------------------------------------------------------

Topologies differ in total number of bonds
Writing topology from bond orders to xtbtopo.mol

molecular dipole:
                 x           y           z       tot (Debye)
 q only:       -0.000       0.000      -0.000
   full:       -0.000       0.000      -0.000       0.000
molecular quadrupole (traceless):
                xx          xy          yy          xz          yz          zz
 q only:        1.752       0.668      -0.898       0.683       0.846      -0.853
  q+dip:       -4.727      -2.233       2.493      -2.287      -4.714       2.234
   full:       -1.720      -0.841       0.919      -0.862      -2.132       0.801

           -------------------------------------------------
          |               Frequency Printout                |
           -------------------------------------------------
 projected vibrational frequencies (cm⁻¹)
eigval :       -0.00    -0.00    -0.00     0.00     0.00     0.00
eigval :        3.99     8.97    13.80    20.74    25.88    27.52
eigval :       40.59    45.04    50.43    59.80    64.98    79.14
eigval :       81.76    85.60    97.88    98.02   105.77   115.34
eigval :      119.18   124.40   130.91   140.29   144.02   152.49
eigval :      153.95   160.01   160.19   161.56   191.66   208.51
eigval :      233.73   233.73   255.05   281.57   305.33   355.40
eigval :      358.79   404.08   422.25   450.51   469.55   491.58
eigval :      502.62   519.98   523.05   768.56   768.69   768.88
eigval :      769.12   769.89   772.18   776.23   782.56   791.60
eigval :      803.64   818.52   836.23   856.29   877.93   900.78
eigval :      923.92   940.93   940.93   946.66   968.34   988.34
eigval :     1006.03  1020.78  1028.10  1030.15  1031.92  1037.92
eigval :     1038.81  1043.85  1053.11  1060.46  1072.07  1076.59
eigval :     1090.73  1092.24  1100.11  1102.22  1103.17  1105.84
eigval :     1109.09  1111.21  1112.80  1115.06  1116.62  1117.25
eigval :     1119.69  1136.10  1138.37  1197.71  1200.02  1205.03
eigval :     1206.98  1212.63  1218.52  1222.22  1232.00  1233.08
eigval :     1244.50  1245.94  1255.80  1259.99  1265.55  1266.76
eigval :     1269.36  1274.09  1274.52  1275.78  1280.74  1283.44
eigval :     1287.28  1288.14  1289.82  1293.27  1294.90  1297.87
eigval :     1298.63  1300.62  1300.95  1301.97  1315.37  1327.98
eigval :     1339.88  1350.41  1359.54  1367.22  1373.04  1377.09
eigval :     1377.31  1378.27  1379.50  1379.56  1380.46  1380.60
eigval :     1416.18  1416.20  1494.74  1494.77  1495.20  1495.27
eigval :     1495.90  1496.06  1496.77  1497.14  1497.81  1498.38
eigval :     1499.07  1499.56  1500.58  1500.62  1501.46  1501.97
eigval :     1502.46  1502.53  1502.71  1504.27  1504.85  1504.85
eigval :     1505.81  1506.94  1508.04  1508.06  2952.78  2952.79
eigval :     2952.97  2953.14  2953.47  2953.98  2954.67  2955.54
eigval :     2956.58  2957.82  2959.21  2960.78  2962.58  2964.55
eigval :     2966.70  2968.96  2971.30  2971.46  2971.47  2971.74
eigval :     2971.77  2972.33  2972.34  2973.23  2973.24  2973.66
eigval :     2974.34  2974.43  2975.62  2975.88  2976.01  2976.89
eigval :     2977.49  2977.93  2978.32  2979.58  2980.49  2981.67
eigval :     2982.25  2983.90  2986.23  2988.56  2990.80  2992.59
eigval :     3029.55  3029.56  3032.04  3032.04  3037.42  3037.44
 reduced masses (amu)
    1:      4.29    2:      2.94    3:      2.61    4:      4.43    5:      4.14    6:      2.82
    7:      4.17    8:      4.19    9:      4.01   10:      1.54   11:      4.08   12:      3.61
   13:      1.75   14:      2.72   15:      3.97   16:      1.92   17:      2.32   18:      1.90
   19:      3.84   20:      2.28   21:      1.84   22:      4.45   23:      2.30   24:      1.82
   25:      3.72   26:      2.28   27:      1.83   28:      2.21   29:      1.88   30:      2.12
   31:      1.94   32:      2.05   33:      2.00   34:      3.60   35:      4.26   36:      3.54
   37:      1.12   38:      1.12   39:      3.39   40:      4.15   41:      3.28   42:      3.20
   43:      3.90   44:      3.16   45:      3.56   46:      3.19   47:      3.28   48:      3.22
   49:      3.17   50:      3.18   51:      3.15   52:      1.06   53:      1.06   54:      1.06
   55:      1.05   56:      1.07   57:      1.08   58:      1.09   59:      1.11   60:      1.12
   61:      1.14   62:      1.16   63:      1.18   64:      1.20   65:      1.21   66:      1.21
   67:      1.21   68:      1.74   69:      1.74   70:      1.20   71:      1.18   72:      1.15
   73:      1.12   74:      1.08   75:      5.80   76:      5.84   77:      1.04   78:      5.04
   79:      1.02   80:      5.37   81:      4.23   82:      4.89   83:      3.65   84:      4.32
   85:      3.82   86:      3.34   87:      2.00   88:      3.41   89:      2.06   90:      2.36
   91:      2.76   92:      2.26   93:      2.74   94:      2.85   95:      2.52   96:      2.52
   97:      3.02   98:      2.62   99:      3.07  100:      2.04  101:      1.95  102:      1.83
  103:      1.20  104:      1.70  105:      1.25  106:      1.58  107:      1.27  108:      1.49
  109:      1.41  110:      1.27  111:      1.34  112:      1.27  113:      1.09  114:      1.17
  115:      1.02  116:      1.27  117:      1.03  118:      1.20  119:      1.06  120:      1.15
  121:      1.10  122:      1.27  123:      1.12  124:      1.12  125:      1.11  126:      1.12
  127:      1.12  128:      1.12  129:      1.12  130:      1.28  131:      1.29  132:      1.31
  133:      1.34  134:      1.37  135:      1.40  136:      1.44  137:      1.48  138:      1.56
  139:      1.71  140:      1.72  141:      1.69  142:      1.57  143:      1.65  144:      1.61
  145:      1.23  146:      1.23  147:      1.09  148:      1.09  149:      1.09  150:      1.09
  151:      1.09  152:      1.09  153:      1.09  154:      1.09  155:      1.09  156:      1.10
  157:      1.09  158:      1.10  159:      1.10  160:      1.08  161:      1.10  162:      1.10
  163:      1.11  164:      1.08  165:      1.10  166:      1.07  167:      1.05  168:      1.05
  169:      1.07  170:      1.07  171:      1.06  172:      1.06  173:      1.09  174:      1.09
  175:      1.09  176:      1.09  177:      1.09  178:      1.09  179:      1.09  180:      1.09
  181:      1.09  182:      1.10  183:      1.10  184:      1.10  185:      1.10  186:      1.10
  187:      1.10  188:      1.10  189:      1.10  190:      1.05  191:      1.05  192:      1.05
  193:      1.05  194:      1.05  195:      1.05  196:      1.05  197:      1.05  198:      1.10
  199:      1.05  200:      1.05  201:      1.05  202:      1.05  203:      1.10  204:      1.04
  205:      1.05  206:      1.05  207:      1.11  208:      1.05  209:      1.11  210:      1.05
  211:      1.11  212:      1.05  213:      1.05  214:      1.05  215:      1.05  216:      1.05
  217:      1.09  218:      1.09  219:      1.09  220:      1.09  221:      1.03  222:      1.03
 IR intensities (km·mol⁻¹)
    1:      0.00    2:      0.00    3:      0.00    4:      0.00    5:      0.01    6:      0.00
    7:      0.00    8:      0.00    9:      0.00   10:      0.00   11:      0.00   12:      0.00
   13:      0.00   14:      0.00   15:      0.01   16:      0.00   17:      0.00   18:      0.00
   19:      0.00   20:      0.00   21:      0.00   22:      0.00   23:      0.00   24:      0.00
   25:      0.03   26:      0.00   27:      0.00   28:      0.00   29:      0.00   30:      0.00
   31:      0.00   32:      0.00   33:      0.00   34:      0.00   35:      0.01   36:      0.05
   37:      0.00   38:      0.00   39:      0.00   40:      0.00   41:      0.09   42:      0.00
   43:      0.05   44:      0.10   45:      0.00   46:      0.00   47:      0.10   48:      0.03
   49:      0.00   50:      0.00   51:      0.02   52:      4.52   53:      0.00   54:      0.00
   55:     43.36   56:      7.31   57:      0.00   58:      2.09   59:      0.00   60:      1.29
   61:      0.00   62:      1.01   63:      0.00   64:      0.84   65:      0.00   66:      0.67
   67:      0.00   68:      0.04   69:      7.07   70:      0.47   71:      0.00   72:      0.26
   73:      0.00   74:      0.07   75:      0.04   76:      0.00   77:      0.00   78:      0.00
   79:      0.06   80:      0.25   81:      0.46   82:      0.00   83:      0.00   84:      0.17
   85:      0.00   86:      1.22   87:      0.00   88:      0.24   89:      0.06   90:      0.00
   91:      0.00   92:      0.01   93:      0.00   94:      0.00   95:      0.00   96:      0.01
   97:      0.00   98:      8.34   99:      0.00  100:      0.00  101:      0.23  102:      0.00
  103:      6.15  104:      0.27  105:      0.00  106:      0.00  107:      0.17  108:      0.18
  109:      0.00  110:      0.00  111:      0.08  112:      0.26  113:      0.00  114:      0.00
  115:      0.02  116:      0.00  117:      0.00  118:      0.01  119:      0.05  120:      0.00
  121:      0.00  122:      0.39  123:      0.01  124:      0.02  125:      0.00  126:      0.00
  127:      0.01  128:      0.00  129:      0.00  130:      0.00  131:      0.45  132:      0.00
  133:      0.44  134:      0.00  135:      0.39  136:      0.00  137:      0.33  138:      0.00
  139:      0.00  140:      0.07  141:      0.00  142:      0.25  143:      0.06  144:      0.00
  145:      0.00  146:      1.69  147:      0.00  148:      0.01  149:      0.04  150:      0.00
  151:      0.00  152:      0.03  153:      0.14  154:      0.00  155:      0.00  156:      0.01
  157:      0.17  158:      0.00  159:      0.11  160:      0.00  161:      0.00  162:      0.10
  163:      0.00  164:      0.05  165:      0.79  166:      0.00  167:      4.82  168:      0.00
  169:      0.00  170:      0.00  171:      2.37  172:      0.00  173:      0.00  174:      0.02
  175:      0.00  176:      0.01  177:      0.00  178:      0.02  179:      0.00  180:      0.05
  181:      0.00  182:      0.11  183:      0.00  184:      0.32  185:      0.00  186:      1.19
  187:      0.00  188:      5.48  189:      0.00  190:      0.00  191:      0.01  192:      0.00
  193:      0.04  194:      0.09  195:      0.00  196:      0.00  197:      0.06  198:     25.01
  199:      0.33  200:      0.00  201:      0.00  202:      0.07  203:      0.00  204:      0.22
  205:      0.00  206:      0.00  207:     95.93  208:      2.49  209:      0.00  210:      0.00
  211:   1006.57  212:     18.89  213:      0.00  214:     75.15  215:      0.00  216:    785.44
  217:    127.67  218:      0.01  219:    123.46  220:      0.01  221:     68.99  222:      0.00
 Raman intensities (Ä⁴*amu⁻¹)
    1:      0.00    2:      0.00    3:      0.00    4:      0.00    5:      0.00    6:      0.00
    7:      0.00    8:      0.00    9:      0.00   10:      0.00   11:      0.00   12:      0.00
   13:      0.00   14:      0.00   15:      0.00   16:      0.00   17:      0.00   18:      0.00
   19:      0.00   20:      0.00   21:      0.00   22:      0.00   23:      0.00   24:      0.00
   25:      0.00   26:      0.00   27:      0.00   28:      0.00   29:      0.00   30:      0.00
Refinement of some symmetry elements was terminated before convergence was reached.
Some symmetry elements may remain unidentified.
Molecule has the following symmetry elements: (i) (C2) (sigma) 
It seems to be the C2h point group
   31:      0.00   32:      0.00   33:      0.00   34:      0.00   35:      0.00   36:      0.00
   37:      0.00   38:      0.00   39:      0.00   40:      0.00   41:      0.00   42:      0.00
   43:      0.00   44:      0.00   45:      0.00   46:      0.00   47:      0.00   48:      0.00
   49:      0.00   50:      0.00   51:      0.00   52:      0.00   53:      0.00   54:      0.00
   55:      0.00   56:      0.00   57:      0.00   58:      0.00   59:      0.00   60:      0.00
   61:      0.00   62:      0.00   63:      0.00   64:      0.00   65:      0.00   66:      0.00
   67:      0.00   68:      0.00   69:      0.00   70:      0.00   71:      0.00   72:      0.00
   73:      0.00   74:      0.00   75:      0.00   76:      0.00   77:      0.00   78:      0.00
   79:      0.00   80:      0.00   81:      0.00   82:      0.00   83:      0.00   84:      0.00
   85:      0.00   86:      0.00   87:      0.00   88:      0.00   89:      0.00   90:      0.00
   91:      0.00   92:      0.00   93:      0.00   94:      0.00   95:      0.00   96:      0.00
   97:      0.00   98:      0.00   99:      0.00  100:      0.00  101:      0.00  102:      0.00
  103:      0.00  104:      0.00  105:      0.00  106:      0.00  107:      0.00  108:      0.00
  109:      0.00  110:      0.00  111:      0.00  112:      0.00  113:      0.00  114:      0.00
  115:      0.00  116:      0.00  117:      0.00  118:      0.00  119:      0.00  120:      0.00
  121:      0.00  122:      0.00  123:      0.00  124:      0.00  125:      0.00  126:      0.00
  127:      0.00  128:      0.00  129:      0.00  130:      0.00  131:      0.00  132:      0.00
  133:      0.00  134:      0.00  135:      0.00  136:      0.00  137:      0.00  138:      0.00
  139:      0.00  140:      0.00  141:      0.00  142:      0.00  143:      0.00  144:      0.00
  145:      0.00  146:      0.00  147:      0.00  148:      0.00  149:      0.00  150:      0.00
  151:      0.00  152:      0.00  153:      0.00  154:      0.00  155:      0.00  156:      0.00
  157:      0.00  158:      0.00  159:      0.00  160:      0.00  161:      0.00  162:      0.00
  163:      0.00  164:      0.00  165:      0.00  166:      0.00  167:      0.00  168:      0.00
  169:      0.00  170:      0.00  171:      0.00  172:      0.00  173:      0.00  174:      0.00
  175:      0.00  176:      0.00  177:      0.00  178:      0.00  179:      0.00  180:      0.00
  181:      0.00  182:      0.00  183:      0.00  184:      0.00  185:      0.00  186:      0.00
  187:      0.00  188:      0.00  189:      0.00  190:      0.00  191:      0.00  192:      0.00
  193:      0.00  194:      0.00  195:      0.00  196:      0.00  197:      0.00  198:      0.00
  199:      0.00  200:      0.00  201:      0.00  202:      0.00  203:      0.00  204:      0.00
  205:      0.00  206:      0.00  207:      0.00  208:      0.00  209:      0.00  210:      0.00
  211:      0.00  212:      0.00  213:      0.00  214:      0.00  215:      0.00  216:      0.00
  217:      0.00  218:      0.00  219:      0.00  220:      0.00  221:      0.00  222:      0.00
 output can be read by thermo (or use thermo option).
 writing <g98.out> molden fake output.
 recommended (thermochemical) frequency scaling factor: 1.0
           -------------------------------------------------
          |             Thermodynamic Functions             |
           -------------------------------------------------

c2h symmetry found (for desy threshold:  0.10E+00) used in thermo

          ...................................................
          :                      SETUP                      :
          :.................................................:
          :  # frequencies                         216      :
          :  # imaginary freq.                       0      :
          :  linear?                             false      :
          :  only rotor calc.                    false      :
          :  symmetry                              c2h      :
          :  rotational number                       2      :
          :  scaling factor                  1.0000000      :
          :  rotor cutoff                   50.0000000 cm⁻¹ :
          :  imag. cutoff                  -20.0000000 cm⁻¹ :
          :.................................................:

    mode    ω/cm⁻¹     T·S(HO)/kcal·mol⁻¹    T·S(FR)/kcal·mol⁻¹   T·S(vib)
   ------------------------------------------------------------------------
       1      3.99    -2.93249 (  0.00%)    -1.80529 (100.00%)    -1.80534
       2      8.97    -2.45293 (  0.10%)    -1.56553 ( 99.90%)    -1.56645
       3     13.80    -2.19789 (  0.58%)    -1.43799 ( 99.42%)    -1.44236
       4     20.74    -1.95660 (  2.87%)    -1.31728 ( 97.13%)    -1.33565
       5     25.88    -1.82534 (  6.70%)    -1.25158 ( 93.30%)    -1.29003
       6     27.52    -1.78911 (  8.40%)    -1.23345 ( 91.60%)    -1.28014
       7     40.59    -1.55931 ( 30.28%)    -1.11829 ( 69.72%)    -1.25185
       8     45.04    -1.49794 ( 39.70%)    -1.08750 ( 60.30%)    -1.25045
       9     50.43    -1.43124 ( 50.86%)    -1.05400 ( 49.14%)    -1.24586
      10     59.80    -1.33091 ( 67.17%)    -1.00354 ( 32.83%)    -1.22342
      11     64.98    -1.28204 ( 74.04%)    -0.97892 ( 25.96%)    -1.20335
      12     79.14    -1.16638 ( 86.26%)    -0.92051 ( 13.74%)    -1.13259
      13     81.76    -1.14735 ( 87.73%)    -0.91087 ( 12.27%)    -1.11833
      14     85.60    -1.12052 ( 89.57%)    -0.89728 ( 10.43%)    -1.09724
      15     97.88    -1.04234 ( 93.63%)    -0.85754 (  6.37%)    -1.03056
      16     98.02    -1.04155 ( 93.66%)    -0.85714 (  6.34%)    -1.02985
      17    105.77    -0.99736 ( 95.24%)    -0.83460 (  4.76%)    -0.98962
      18    115.34    -0.94724 ( 96.59%)    -0.80894 (  3.41%)    -0.94252
      19    119.18    -0.92834 ( 96.99%)    -0.79924 (  3.01%)    -0.92446
      20    124.40    -0.90366 ( 97.46%)    -0.78654 (  2.54%)    -0.90068
      21    130.91    -0.87436 ( 97.92%)    -0.77142 (  2.08%)    -0.87221
      22    140.29    -0.83479 ( 98.41%)    -0.75092 (  1.59%)    -0.83346
      23    144.02    -0.81984 ( 98.57%)    -0.74314 (  1.43%)    -0.81874
      24    152.49    -0.78739 ( 98.86%)    -0.72622 (  1.14%)    -0.78669
      25    153.95    -0.78200 ( 98.90%)    -0.72340 (  1.10%)    -0.78136
      26    160.01    -0.76020 ( 99.06%)    -0.71196 (  0.94%)    -0.75974
      27    160.19    -0.75953 ( 99.06%)    -0.71161 (  0.94%)    -0.75908
      28    161.56    -0.75477 ( 99.09%)    -0.70911 (  0.91%)    -0.75435
      29    191.66    -0.65942 ( 99.54%)    -0.65849 (  0.46%)    -0.65941
      30    208.51    -0.61320 ( 99.67%)    -0.63353 (  0.33%)    -0.61327
      31    233.73    -0.55162 ( 99.79%)    -0.59971 (  0.21%)    -0.55172
      32    233.73    -0.55161 ( 99.79%)    -0.59970 (  0.21%)    -0.55171
      33    255.05    -0.50548 ( 99.85%)    -0.57384 (  0.15%)    -0.50558
      34    281.57    -0.45441 ( 99.90%)    -0.54453 (  0.10%)    -0.45450
   ------------------------------------------------------------------------

   temp. (K)  partition function   enthalpy   heat capacity  entropy
                                   cal/mol     cal/K/mol   cal/K/mol   J/K/mol
 298.15  VIB  0.316E+19            19040.262    101.166    130.079
         ROT  0.122E+08              888.727      2.981     35.399
         INT  0.385E+26            19928.989    104.147    165.478
         TR   0.191E+27             1481.212      4.968     43.354
         TOT                       21410.2015   109.1151   208.8318   873.7524

       T/K    H(0)-H(T)+PV         H(T)/Eh          T*S/Eh         G(T)/Eh
   ------------------------------------------------------------------------
    298.15    0.341193E-01    0.727896E+00    0.992227E-01    0.628673E+00
   ------------------------------------------------------------------------

         :::::::::::::::::::::::::::::::::::::::::::::::::::::
         ::                  THERMODYNAMIC                  ::
         :::::::::::::::::::::::::::::::::::::::::::::::::::::
         :: total free energy         -76.324482197084 Eh   ::
         ::.................................................::
Note: The following floating-point exceptions are signalling: IEEE_UNDERFLOW_FLAG
normal termination of xtb
         :: total energy              -76.953155359526 Eh   ::
         :: zero point energy           0.693776581757 Eh   ::
         :: G(RRHO) w/o ZPVE           -0.065103419315 Eh   ::
         :: G(RRHO) contrib.            0.628673162442 Eh   ::
         :::::::::::::::::::::::::::::::::::::::::::::::::::::

           -------------------------------------------------
          | TOTAL ENERGY              -76.953155359526 Eh   |
          | TOTAL ENTHALPY            -76.225259449873 Eh   |
          | TOTAL FREE ENERGY         -76.324482197084 Eh   |
          | GRADIENT NORM               0.000131335106 Eh/α |
          | HOMO-LUMO GAP              11.655733755492 eV   |
           -------------------------------------------------

------------------------------------------------------------------------
 * finished run on 2026/08/28 at 19:19:09.126     
------------------------------------------------------------------------
 total:
 * wall-time:     0 d,  0 h,  0 min, 49.499 sec
 *  cpu-time:     0 d,  0 h,  0 min, 49.310 sec
 * ratio c/w:     0.996 speedup
 SCF:
 * wall-time:     0 d,  0 h,  0 min,  0.207 sec
 *  cpu-time:     0 d,  0 h,  0 min,  0.162 sec
 * ratio c/w:     0.784 speedup
 analytical hessian:
 * wall-time:     0 d,  0 h,  0 min, 49.043 sec
 *  cpu-time:     0 d,  0 h,  0 min, 48.982 sec
 * ratio c/w:     0.999 speedup

