      -----------------------------------------------------------      
     |                   =====================                   |     
     |                           x T B                           |     
     |                   =====================                   |     
     |                         S. Grimme                         |     
     |          Mulliken Center for Theoretical Chemistry        |     
     |                    University of Bonn                     |     
      -----------------------------------------------------------      

   * xtb version 6.7.1 (unknown) compiled by 'root@buildkitsandbox' on 2026-08-28

   xtb is free software: you can redistribute it and/or modify it under
   the terms of the GNU Lesser General Public License as published by
   the Free Software Foundation, either version 3 of the License, or
   (at your option) any later version.
   
   xtb is distributed in the hope that it will be useful,
   but WITHOUT ANY WARRANTY; without even the implied warranty of
   MERCHANTABILITY or FITNESS FOR A PARTICULAR PURPOSE.  See the
   GNU Lesser General Public License for more details.
   
   Cite this work as:
   * C. Bannwarth, E. Caldeweyher, S. Ehlert, A. Hansen, P. Pracht,
     J. Seibert, S. Spicher, S. Grimme, WIREs Comput. Mol. Sci., 2020, 11,
     e01493. DOI: 10.1002/wcms.1493
   
   for GFN2-xTB:
   * C. Bannwarth, S. Ehlert and S. Grimme., J. Chem. Theory Comput., 2019,
     15, 1652-1671. DOI: 10.1021/acs.jctc.8b01176
   for GFN1-xTB:
   * S. Grimme, C. Bannwarth, P. Shushkov, J. Chem. Theory Comput., 2017,
     13, 1989-2009. DOI: 10.1021/acs.jctc.7b00118
   for GFN0-xTB:
   * P. Pracht, E. Caldeweyher, S. Ehlert, S. Grimme, ChemRxiv, 2019, preprint.
     DOI: 10.26434/chemrxiv.8326202.v1
   for GFN-FF:
   * S. Spicher and S. Grimme, Angew. Chem. Int. Ed., 2020, 59, 15665-15673.
     DOI: 10.1002/anie.202004239
   
   for ALPB and GBSA implicit solvation:
   * S. Ehlert, M. Stahn, S. Spicher, S. Grimme, J. Chem. Theory Comput.,
     2021, 17, 4250-4261. DOI: 10.1021/acs.jctc.1c00471
   
   for ddCOSMO and CPCM-X implicit solvation:
   * M. Stahn, S. Ehlert, S. Grimme, J. Phys. Chem. A,
     2023, XX, XXXX-XXXX. DOI: 10.1021/acs.jpca.3c04382
   
   for DFT-D4:
   * E. Caldeweyher, C. Bannwarth and S. Grimme, J. Chem. Phys., 2017,
     147, 034112. DOI: 10.1063/1.4993215
   * E. Caldeweyher, S. Ehlert, A. Hansen, H. Neugebauer, S. Spicher,
     C. Bannwarth and S. Grimme, J. Chem. Phys., 2019, 150, 154122.
     DOI: 10.1063/1.5090222
   * E. Caldeweyher, J.-M. Mewes, S. Ehlert and S. Grimme, Phys. Chem. Chem. Phys.
     2020, 22, 8499-8512. DOI: 10.1039/D0CP00502A
   
   for sTDA-xTB:
   * S. Grimme and C. Bannwarth, J. Chem. Phys., 2016, 145, 054103.
     DOI: 10.1063/1.4959605
   
   in the mass-spec context:
   * V. Asgeirsson, C. Bauer and S. Grimme, Chem. Sci., 2017, 8, 4879.
     DOI: 10.1039/c7sc00601b
   * J. Koopman and S. Grimme, ACS Omega 2019, 4, 12, 15120-15133.
     DOI: 10.1021/acsomega.9b02011
   
   for metadynamics refer to:
   * S. Grimme, J. Chem. Theory Comput., 2019, 155, 2847-2862
     DOI: 10.1021/acs.jctc.9b00143
   
   for SPH calculations refer to:
   * S. Spicher and S. Grimme, J. Chem. Theory Comput., 2021, 17, 1701-1714
     DOI: 10.1021/acs.jctc.0c01306
   
   for ONIOM refer to:
   * C. Plett, A. Katbashev, S. Ehlert, S. Grimme, M. Bursch,
     Phys. Chem. Chem. Phys., 2023, 25, 17860-17868. DOI: 10.1039/D3CP02178E
   
   for DIPRO refer to:
   * J. Kohn, N. Gildemeister, S. Grimme, D. Fazzi, A. Hansen,
     J. Chem. Phys. 159, 144106 (2023). DOI: 10.1063/5.0167484
   
   for PTB refer to:
   * S. Grimme, M. Mueller, A. Hansen, J. Chem. Phys., 2023, 158, 124111.
     DOI: 10.1063/5.0137838
   
   with help from (in alphabetical order)
   P. Atkinson, C. Bannwarth, F. Bohle, G. Brandenburg, E. Caldeweyher,
   M. Checinski, S. Dohm, S. Ehlert, S. Ehrlich, M. Friede, T. Froitzheim,
   I. Gerasimov, C. Hölzer, A. Katbashev, J. Kohn, J. Koopman, C. Lavigne,
   S. Lehtola, F. März, M. Müller, F. Musil, H. Neugebauer, J. Pisarek,
   C. Plett, P. Pracht, F. Pultar, J. Seibert, P. Shushkov, S. Spicher,
   M. Stahn, M. Steiner, T. Strunk, J. Stückrath, T. Rose, and J. Unsleber
   
 * started run on 2026/08/28 at 19:09:59.608     
   ID    Z sym.   atoms
    1    6 C      1-32
    2    1 H      33-98

           -------------------------------------------------
          |                Calculation Setup                |
           -------------------------------------------------

          program call               : xtb in.xyz --gfn 2 --grad --norestart
          hostname                   : 756d39058c4f
          coordinate file            : in.xyz
          random seed                :             799266158


           -------------------------------------------------
          |                 G F N 2 - x T B                 |
           -------------------------------------------------

        Reference                      10.1021/acs.jctc.8b01176
      * Hamiltonian:
        H0-scaling (s, p, d)           1.850000    2.230000    2.230000
        zeta-weighting                 0.500000
      * Dispersion:
        s8                             2.700000
        a1                             0.520000
        a2                             5.000000
        s9                             5.000000
      * Repulsion:
        kExp                           1.500000    1.000000
        rExp                           1.000000
      * Coulomb:
        alpha                          2.000000
        third order                    shell-resolved
        anisotropic                    true
        a3                             3.000000
        a5                             4.000000
        cn-shift                       1.200000
        cn-exp                         4.000000
        max-rad                        5.000000


          ...................................................
          :                      SETUP                      :
          :.................................................:
          :  # basis functions                 194          :
          :  # atomic orbitals                 194          :
          :  # shells                          130          :
          :  # electrons                       194          :
          :  max. iterations                   250          :
          :  Hamiltonian                  GFN2-xTB          :
          :  restarted?                      false          :
          :  GBSA solvation                  false          :
          :  PC potential                    false          :
          :  electronic temp.          300.0000000     K    :
          :  accuracy                    1.0000000          :
          :  -> integral cutoff          0.2500000E+02      :
          :  -> integral neglect         0.1000000E-07      :
          :  -> SCF convergence          0.1000000E-05 Eh   :
          :  -> wf. convergence          0.1000000E-03 e    :
          :  Broyden damping             0.4000000          :
          :  net charge                          0          :
          :  unpaired electrons                  0          :
          ...................................................

 iter      E             dE          RMSdq      gap      omega  full diag
   1   -103.4827010 -0.103483E+03  0.259E+00   11.49       0.0  T
   2   -103.7365528 -0.253852E+00  0.142E+00   11.57       1.0  T
   3   -103.7404308 -0.387800E-02  0.735E-01   11.60       1.0  T
   4   -103.7411423 -0.711505E-03  0.801E-02   11.62       1.0  T
   5   -103.7411459 -0.352851E-05  0.334E-02   11.62       1.0  T
   6   -103.7411523 -0.644815E-05  0.169E-03   11.62       6.0  T
   7   -103.7411524 -0.849406E-07  0.612E-04   11.62      16.5  T
   8   -103.7411524 -0.245075E-08  0.304E-04   11.62      33.3  T

   *** convergence criteria satisfied after 8 iterations ***

         #    Occupation            Energy/Eh            Energy/eV
      -------------------------------------------------------------
         1        2.0000           -0.6228209             -16.9478
       ...           ...                  ...                  ...
        91        2.0000           -0.4167265             -11.3397
        92        2.0000           -0.4166082             -11.3365
        93        2.0000           -0.4163692             -11.3300
        94        2.0000           -0.4163454             -11.3293
        95        2.0000           -0.4128723             -11.2348
        96        2.0000           -0.4053447             -11.0300
        97        2.0000           -0.4004907             -10.8979 (HOMO)
        98                          0.0265877               0.7235 (LUMO)
        99                          0.0350261               0.9531
       100                          0.0484126               1.3174
       101                          0.0657507               1.7892
       102                          0.0859825               2.3397
       ...                                ...                  ...
       194                          0.3207252               8.7274
      -------------------------------------------------------------
                  HL-Gap            0.4270784 Eh           11.6214 eV
             Fermi-level           -0.1869515 Eh           -5.0872 eV

 SCC (total)                   0 d,  0 h,  0 min,  0.270 sec
 SCC setup                      ...        0 min,  0.000 sec (  0.135%)
 Dispersion                     ...        0 min,  0.001 sec (  0.338%)
 classical contributions        ...        0 min,  0.000 sec (  0.071%)
 integral evaluation            ...        0 min,  0.019 sec (  7.211%)
 iterations                     ...        0 min,  0.177 sec ( 65.530%)
 molecular gradient             ...        0 min,  0.069 sec ( 25.683%)
 printout                       ...        0 min,  0.003 sec (  1.022%)

         :::::::::::::::::::::::::::::::::::::::::::::::::::::
         ::                     SUMMARY                     ::
         :::::::::::::::::::::::::::::::::::::::::::::::::::::
         :: total energy            -102.266317519752 Eh    ::
         :: gradient norm              0.029437479354 Eh/a0 ::
         :: HOMO-LUMO gap             11.621394025652 eV    ::
         ::.................................................::
         :: SCC energy              -103.742300515854 Eh    ::
         :: -> isotropic ES            0.015405897467 Eh    ::
         :: -> anisotropic ES          0.033192610866 Eh    ::
         :: -> anisotropic XC          0.062769399574 Eh    ::
         :: -> dispersion             -0.068291200322 Eh    ::
         :: repulsion energy           1.475982996101 Eh    ::
         :: add. restraining           0.000000000000 Eh    ::
         :: total charge              -0.000000000000 e     ::
         :::::::::::::::::::::::::::::::::::::::::::::::::::::

           -------------------------------------------------
          |                Property Printout                |
           -------------------------------------------------

    * Orbital Energies and Occupations

         #    Occupation            Energy/Eh            Energy/eV
      -------------------------------------------------------------
         1        2.0000           -0.6228209             -16.9478
       ...           ...                  ...                  ...
        85        2.0000           -0.4210642             -11.4577
        86        2.0000           -0.4190961             -11.4042
        87        2.0000           -0.4177548             -11.3677
        88        2.0000           -0.4171793             -11.3520
        89        2.0000           -0.4170303             -11.3480
        90        2.0000           -0.4169733             -11.3464
        91        2.0000           -0.4167265             -11.3397
        92        2.0000           -0.4166082             -11.3365
        93        2.0000           -0.4163692             -11.3300
        94        2.0000           -0.4163454             -11.3293
        95        2.0000           -0.4128723             -11.2348
        96        2.0000           -0.4053447             -11.0300
        97        2.0000           -0.4004907             -10.8979 (HOMO)
        98                          0.0265877               0.7235 (LUMO)
        99                          0.0350261               0.9531
       100                          0.0484126               1.3174
       101                          0.0657507               1.7892
       102                          0.0859825               2.3397
       103                          0.0899269               2.4470
       104                          0.0923518               2.5130
       105                          0.0963900               2.6229
       106                          0.1019524               2.7743
       107                          0.1037457               2.8231
       108                          0.1038604               2.8262
       ...                                ...                  ...
       194                          0.3207252               8.7274
      -------------------------------------------------------------
                  HL-Gap            0.4270784 Eh           11.6214 eV
             Fermi-level           -0.1869515 Eh           -5.0872 eV

     #   Z          covCN         q      C6AA      α(0)
     1   6          3.750    -0.100    22.472     6.761
     2   6          3.800    -0.052    21.505     6.603
     3   6          3.802    -0.058    21.621     6.620
     4   6          3.802    -0.058    21.615     6.619
     5   6          3.802    -0.058    21.610     6.618
     6   6          3.802    -0.058    21.613     6.619
     7   6          3.802    -0.058    21.613     6.619
     8   6          3.802    -0.058    21.613     6.619
     9   6          3.802    -0.058    21.614     6.619
    10   6          3.802    -0.058    21.614     6.619
    11   6          3.802    -0.058    21.614     6.619
    12   6          3.802    -0.058    21.614     6.619
    13   6          3.802    -0.058    21.614     6.619
    14   6          3.802    -0.058    21.614     6.619
    15   6          3.802    -0.058    21.614     6.619
    16   6          3.802    -0.058    21.614     6.619
    17   6          3.802    -0.058    21.614     6.619
    18   6          3.802    -0.058    21.614     6.619
    19   6          3.802    -0.058    21.614     6.619
    20   6          3.802    -0.058    21.614     6.619
    21   6          3.802    -0.058    21.614     6.619
    22   6          3.802    -0.058    21.614     6.619
    23   6          3.802    -0.058    21.614     6.619
    24   6          3.802    -0.058    21.614     6.619
    25   6          3.802    -0.058    21.613     6.619
    26   6          3.802    -0.058    21.613     6.619
    27   6          3.802    -0.058    21.613     6.619
    28   6          3.802    -0.058    21.610     6.618
    29   6          3.802    -0.058    21.615     6.619
    30   6          3.802    -0.058    21.621     6.620
    31   6          3.800    -0.052    21.505     6.603
    32   6          3.750    -0.100    22.472     6.761
    33   1          0.924     0.031     2.573     2.508
    34   1          0.924     0.032     2.557     2.500
    35   1          0.924     0.032     2.557     2.501
    36   1          0.924     0.028     2.611     2.527
    37   1          0.924     0.028     2.610     2.527
    38   1          0.924     0.030     2.591     2.517
    39   1          0.924     0.030     2.591     2.517
    40   1          0.924     0.028     2.609     2.526
    41   1          0.924     0.028     2.609     2.526
    42   1          0.924     0.029     2.603     2.523
    43   1          0.924     0.029     2.603     2.523
    44   1          0.924     0.029     2.603     2.523
    45   1          0.924     0.029     2.603     2.523
    46   1          0.924     0.029     2.602     2.523
    47   1          0.924     0.029     2.602     2.523
    48   1          0.924     0.029     2.602     2.523
    49   1          0.924     0.029     2.602     2.523
    50   1          0.924     0.029     2.602     2.523
    51   1          0.924     0.029     2.602     2.523
    52   1          0.924     0.029     2.602     2.523
    53   1          0.924     0.029     2.602     2.523
    54   1          0.924     0.029     2.602     2.523
    55   1          0.924     0.029     2.602     2.523
    56   1          0.924     0.029     2.602     2.523
    57   1          0.924     0.029     2.602     2.523
    58   1          0.924     0.029     2.602     2.523
    59   1          0.924     0.029     2.602     2.523
    60   1          0.924     0.029     2.602     2.523
    61   1          0.924     0.029     2.602     2.523
    62   1          0.924     0.029     2.602     2.523
    63   1          0.924     0.029     2.602     2.523
    64   1          0.924     0.029     2.602     2.523
    65   1          0.924     0.029     2.602     2.523
    66   1          0.924     0.029     2.602     2.523
    67   1          0.924     0.029     2.602     2.523
    68   1          0.924     0.029     2.602     2.523
    69   1          0.924     0.029     2.602     2.523
    70   1          0.924     0.029     2.602     2.523
    71   1          0.924     0.029     2.602     2.523
    72   1          0.924     0.029     2.602     2.523
    73   1          0.924     0.029     2.602     2.523
    74   1          0.924     0.029     2.602     2.523
    75   1          0.924     0.029     2.602     2.523
    76   1          0.924     0.029     2.602     2.523
    77   1          0.924     0.029     2.602     2.523
    78   1          0.924     0.029     2.602     2.523
    79   1          0.924     0.029     2.602     2.523
    80   1          0.924     0.029     2.602     2.523
    81   1          0.924     0.029     2.602     2.523
    82   1          0.924     0.029     2.602     2.523
    83   1          0.924     0.029     2.602     2.523
    84   1          0.924     0.029     2.602     2.523
    85   1          0.924     0.029     2.602     2.523
    86   1          0.924     0.029     2.603     2.523
    87   1          0.924     0.029     2.603     2.523
    88   1          0.924     0.029     2.603     2.523
    89   1          0.924     0.029     2.603     2.523
    90   1          0.924     0.028     2.609     2.526
    91   1          0.924     0.028     2.609     2.526
    92   1          0.924     0.030     2.591     2.517
    93   1          0.924     0.030     2.591     2.517
    94   1          0.924     0.028     2.611     2.527
    95   1          0.924     0.028     2.611     2.527
    96   1          0.924     0.032     2.557     2.501
    97   1          0.924     0.031     2.573     2.508
    98   1          0.924     0.032     2.557     2.500

 Mol. C6AA /au·bohr⁶  :      64990.358830
 Mol. C8AA /au·bohr⁸  :    1367131.225985
 Mol. α(0) /au        :        378.446976


Wiberg/Mayer (AO) data.
largest (>0.10) Wiberg bond orders for each atom

 ---------------------------------------------------------------------------
     #   Z sym  total        # sym  WBO       # sym  WBO       # sym  WBO
 ---------------------------------------------------------------------------
     1   6      3.997 --     2      1.020    34      0.988    35      0.988
                            33      0.987
     2   6      3.997 --     1      1.020     3      1.008    37      0.978
                            36      0.978
     3   6      3.997 --     2      1.008     4      1.007    39      0.977
                            38      0.977
     4   6      3.997 --     3      1.007     5      1.007    41      0.977
                            40      0.977
     5   6      3.997 --     4      1.007     6      1.007    42      0.977
                            43      0.977
     6   6      3.996 --     5      1.007     7      1.007    45      0.977
                            44      0.977
     7   6      3.996 --     6      1.007     8      1.007    46      0.977
                            47      0.977
     8   6      3.996 --     7      1.007     9      1.007    49      0.977
                            48      0.977
     9   6      3.996 --    10      1.007     8      1.007    50      0.977
                            51      0.977
    10   6      3.996 --     9      1.007    11      1.007    52      0.977
                            53      0.977
    11   6      3.996 --    12      1.007    10      1.007    54      0.977
                            55      0.977
    12   6      3.996 --    11      1.007    13      1.007    56      0.977
                            57      0.977
    13   6      3.996 --    14      1.007    12      1.007    59      0.977
                            58      0.977
    14   6      3.996 --    13      1.007    15      1.007    60      0.977
                            61      0.977
    15   6      3.996 --    16      1.007    14      1.007    63      0.977
                            62      0.977
    16   6      3.996 --    17      1.007    15      1.007    64      0.977
                            65      0.977
    17   6      3.996 --    16      1.007    18      1.007    67      0.977
                            66      0.977
    18   6      3.996 --    17      1.007    19      1.007    68      0.977
                            69      0.977
    19   6      3.996 --    20      1.007    18      1.007    71      0.977
                            70      0.977
    20   6      3.996 --    19      1.007    21      1.007    72      0.977
                            73      0.977
    21   6      3.996 --    22      1.007    20      1.007    75      0.977
                            74      0.977
    22   6      3.996 --    21      1.007    23      1.007    77      0.977
                            76      0.977
    23   6      3.996 --    24      1.007    22      1.007    78      0.977
                            79      0.977
    24   6      3.996 --    23      1.007    25      1.007    80      0.977
                            81      0.977
    25   6      3.996 --    24      1.007    26      1.007    82      0.977
                            83      0.977
    26   6      3.996 --    27      1.007    25      1.007    85      0.977
                            84      0.977
    27   6      3.996 --    28      1.007    26      1.007    86      0.977
                            87      0.977
    28   6      3.997 --    29      1.007    27      1.007    89      0.977
                            88      0.977
    29   6      3.997 --    30      1.007    28      1.007    91      0.977
                            90      0.977
    30   6      3.997 --    31      1.008    29      1.007    93      0.977
                            92      0.977
    31   6      3.997 --    32      1.020    30      1.008    94      0.978
                            95      0.978
    32   6      3.997 --    31      1.020    98      0.988    96      0.988
                            97      0.987
    33   1      0.999 --     1      0.987
    34   1      0.999 --     1      0.988
    35   1      0.999 --     1      0.988
    36   1      0.999 --     2      0.978
    37   1      0.999 --     2      0.978
    38   1      0.999 --     3      0.977
    39   1      0.999 --     3      0.977
    40   1      0.999 --     4      0.977
    41   1      0.999 --     4      0.977
    42   1      0.999 --     5      0.977
    43   1      0.999 --     5      0.977
    44   1      0.999 --     6      0.977
    45   1      0.999 --     6      0.977
    46   1      0.999 --     7      0.977
    47   1      0.999 --     7      0.977
    48   1      0.999 --     8      0.977
    49   1      0.999 --     8      0.977
    50   1      0.999 --     9      0.977
    51   1      0.999 --     9      0.977
    52   1      0.999 --    10      0.977
    53   1      0.999 --    10      0.977
    54   1      0.999 --    11      0.977
    55   1      0.999 --    11      0.977
    56   1      0.999 --    12      0.977
    57   1      0.999 --    12      0.977
    58   1      0.999 --    13      0.977
    59   1      0.999 --    13      0.977
    60   1      0.999 --    14      0.977
    61   1      0.999 --    14      0.977
    62   1      0.999 --    15      0.977
    63   1      0.999 --    15      0.977
    64   1      0.999 --    16      0.977
    65   1      0.999 --    16      0.977
    66   1      0.999 --    17      0.977
    67   1      0.999 --    17      0.977
Note: The following floating-point exceptions are signalling: IEEE_UNDERFLOW_FLAG
normal termination of xtb
    68   1      0.999 --    18      0.977
    69   1      0.999 --    18      0.977
    70   1      0.999 --    19      0.977
    71   1      0.999 --    19      0.977
    72   1      0.999 --    20      0.977
    73   1      0.999 --    20      0.977
    74   1      0.999 --    21      0.977
    75   1      0.999 --    21      0.977
    76   1      0.999 --    22      0.977
    77   1      0.999 --    22      0.977
    78   1      0.999 --    23      0.977
    79   1      0.999 --    23      0.977
    80   1      0.999 --    24      0.977
    81   1      0.999 --    24      0.977
    82   1      0.999 --    25      0.977
    83   1      0.999 --    25      0.977
    84   1      0.999 --    26      0.977
    85   1      0.999 --    26      0.977
    86   1      0.999 --    27      0.977
    87   1      0.999 --    27      0.977
    88   1      0.999 --    28      0.977
    89   1      0.999 --    28      0.977
    90   1      0.999 --    29      0.977
    91   1      0.999 --    29      0.977
    92   1      0.999 --    30      0.977
    93   1      0.999 --    30      0.977
    94   1      0.999 --    31      0.978
    95   1      0.999 --    31      0.978
    96   1      0.999 --    32      0.988
    97   1      0.999 --    32      0.987
    98   1      0.999 --    32      0.988
 ---------------------------------------------------------------------------

Topologies differ in total number of bonds
Writing topology from bond orders to xtbtopo.mol

molecular dipole:
                 x           y           z       tot (Debye)
 q only:       -0.000       0.000      -0.000
   full:        0.000       0.000      -0.000       0.000
molecular quadrupole (traceless):
                xx          xy          yy          xz          yz          zz
 q only:        1.610      -0.359      -1.132      -0.495       1.006      -0.478
  q+dip:       -6.898       3.145       5.285       4.319      -5.666       1.613
   full:       -2.812       1.308       2.207       1.794      -2.474       0.605


           -------------------------------------------------
          | TOTAL ENERGY             -102.266317519752 Eh   |
          | GRADIENT NORM               0.029437479354 Eh/α |
          | HOMO-LUMO GAP              11.621394025652 eV   |
           -------------------------------------------------

------------------------------------------------------------------------
 * finished run on 2026/08/28 at 19:09:59.927     
------------------------------------------------------------------------
 total:
 * wall-time:     0 d,  0 h,  0 min,  0.319 sec
 *  cpu-time:     0 d,  0 h,  0 min,  0.295 sec
 * ratio c/w:     0.925 speedup
 SCF:
 * wall-time:     0 d,  0 h,  0 min,  0.271 sec
 *  cpu-time:     0 d,  0 h,  0 min,  0.264 sec
 * ratio c/w:     0.974 speedup

