      -----------------------------------------------------------      
     |                   =====================                   |     
     |                           x T B                           |     
     |                   =====================                   |     
     |                         S. Grimme                         |     
     |          Mulliken Center for Theoretical Chemistry        |     
     |                    University of Bonn                     |     
      -----------------------------------------------------------      

   * xtb version 6.7.1 (unknown) compiled by 'root@buildkitsandbox' on 2026-08-28

   xtb is free software: you can redistribute it and/or modify it under
   the terms of the GNU Lesser General Public License as published by
   the Free Software Foundation, either version 3 of the License, or
   (at your option) any later version.
   
   xtb is distributed in the hope that it will be useful,
   but WITHOUT ANY WARRANTY; without even the implied warranty of
   MERCHANTABILITY or FITNESS FOR A PARTICULAR PURPOSE.  See the
   GNU Lesser General Public License for more details.
   
   Cite this work as:
   * C. Bannwarth, E. Caldeweyher, S. Ehlert, A. Hansen, P. Pracht,
     J. Seibert, S. Spicher, S. Grimme, WIREs Comput. Mol. Sci., 2020, 11,
     e01493. DOI: 10.1002/wcms.1493
   
   for GFN2-xTB:
   * C. Bannwarth, S. Ehlert and S. Grimme., J. Chem. Theory Comput., 2019,
     15, 1652-1671. DOI: 10.1021/acs.jctc.8b01176
   for GFN1-xTB:
   * S. Grimme, C. Bannwarth, P. Shushkov, J. Chem. Theory Comput., 2017,
     13, 1989-2009. DOI: 10.1021/acs.jctc.7b00118
   for GFN0-xTB:
   * P. Pracht, E. Caldeweyher, S. Ehlert, S. Grimme, ChemRxiv, 2019, preprint.
     DOI: 10.26434/chemrxiv.8326202.v1
   for GFN-FF:
   * S. Spicher and S. Grimme, Angew. Chem. Int. Ed., 2020, 59, 15665-15673.
     DOI: 10.1002/anie.202004239
   
   for ALPB and GBSA implicit solvation:
   * S. Ehlert, M. Stahn, S. Spicher, S. Grimme, J. Chem. Theory Comput.,
     2021, 17, 4250-4261. DOI: 10.1021/acs.jctc.1c00471
   
   for ddCOSMO and CPCM-X implicit solvation:
   * M. Stahn, S. Ehlert, S. Grimme, J. Phys. Chem. A,
     2023, XX, XXXX-XXXX. DOI: 10.1021/acs.jpca.3c04382
   
   for DFT-D4:
   * E. Caldeweyher, C. Bannwarth and S. Grimme, J. Chem. Phys., 2017,
     147, 034112. DOI: 10.1063/1.4993215
   * E. Caldeweyher, S. Ehlert, A. Hansen, H. Neugebauer, S. Spicher,
     C. Bannwarth and S. Grimme, J. Chem. Phys., 2019, 150, 154122.
     DOI: 10.1063/1.5090222
   * E. Caldeweyher, J.-M. Mewes, S. Ehlert and S. Grimme, Phys. Chem. Chem. Phys.
     2020, 22, 8499-8512. DOI: 10.1039/D0CP00502A
   
   for sTDA-xTB:
   * S. Grimme and C. Bannwarth, J. Chem. Phys., 2016, 145, 054103.
     DOI: 10.1063/1.4959605
   
   in the mass-spec context:
   * V. Asgeirsson, C. Bauer and S. Grimme, Chem. Sci., 2017, 8, 4879.
     DOI: 10.1039/c7sc00601b
   * J. Koopman and S. Grimme, ACS Omega 2019, 4, 12, 15120-15133.
     DOI: 10.1021/acsomega.9b02011
   
   for metadynamics refer to:
   * S. Grimme, J. Chem. Theory Comput., 2019, 155, 2847-2862
     DOI: 10.1021/acs.jctc.9b00143
   
   for SPH calculations refer to:
   * S. Spicher and S. Grimme, J. Chem. Theory Comput., 2021, 17, 1701-1714
     DOI: 10.1021/acs.jctc.0c01306
   
   for ONIOM refer to:
   * C. Plett, A. Katbashev, S. Ehlert, S. Grimme, M. Bursch,
     Phys. Chem. Chem. Phys., 2023, 25, 17860-17868. DOI: 10.1039/D3CP02178E
   
   for DIPRO refer to:
   * J. Kohn, N. Gildemeister, S. Grimme, D. Fazzi, A. Hansen,
     J. Chem. Phys. 159, 144106 (2023). DOI: 10.1063/5.0167484
   
   for PTB refer to:
   * S. Grimme, M. Mueller, A. Hansen, J. Chem. Phys., 2023, 158, 124111.
     DOI: 10.1063/5.0137838
   
   with help from (in alphabetical order)
   P. Atkinson, C. Bannwarth, F. Bohle, G. Brandenburg, E. Caldeweyher,
   M. Checinski, S. Dohm, S. Ehlert, S. Ehrlich, M. Friede, T. Froitzheim,
   I. Gerasimov, C. Hölzer, A. Katbashev, J. Kohn, J. Koopman, C. Lavigne,
   S. Lehtola, F. März, M. Müller, F. Musil, H. Neugebauer, J. Pisarek,
   C. Plett, P. Pracht, F. Pultar, J. Seibert, P. Shushkov, S. Spicher,
   M. Stahn, M. Steiner, T. Strunk, J. Stückrath, T. Rose, and J. Unsleber
   
 * started run on 2026/08/28 at 19:14:24.633     
   ID    Z sym.   atoms
    1    6 C      1-16
    2    1 H      17-50

           -------------------------------------------------
          |                Calculation Setup                |
           -------------------------------------------------

          program call               : xtb opt.xyz --gfn 2 --hess --norestart
          hostname                   : 756d39058c4f
          coordinate file            : opt.xyz
          random seed                :             728459862


           -------------------------------------------------
          |                 G F N 2 - x T B                 |
           -------------------------------------------------

        Reference                      10.1021/acs.jctc.8b01176
      * Hamiltonian:
        H0-scaling (s, p, d)           1.850000    2.230000    2.230000
        zeta-weighting                 0.500000
      * Dispersion:
        s8                             2.700000
        a1                             0.520000
        a2                             5.000000
        s9                             5.000000
      * Repulsion:
        kExp                           1.500000    1.000000
        rExp                           1.000000
      * Coulomb:
        alpha                          2.000000
        third order                    shell-resolved
        anisotropic                    true
        a3                             3.000000
        a5                             4.000000
        cn-shift                       1.200000
        cn-exp                         4.000000
        max-rad                        5.000000


          ...................................................
          :                      SETUP                      :
          :.................................................:
          :  # basis functions                  98          :
          :  # atomic orbitals                  98          :
          :  # shells                           66          :
          :  # electrons                        98          :
          :  max. iterations                   250          :
          :  Hamiltonian                  GFN2-xTB          :
          :  restarted?                      false          :
          :  GBSA solvation                  false          :
          :  PC potential                    false          :
          :  electronic temp.          300.0000000     K    :
          :  accuracy                    1.0000000          :
          :  -> integral cutoff          0.2500000E+02      :
          :  -> integral neglect         0.1000000E-07      :
          :  -> SCF convergence          0.1000000E-05 Eh   :
          :  -> wf. convergence          0.1000000E-03 e    :
          :  Broyden damping             0.4000000          :
          :  net charge                          0          :
          :  unpaired electrons                  0          :
          ...................................................

 iter      E             dE          RMSdq      gap      omega  full diag
   1    -52.2771439 -0.522771E+02  0.264E+00   11.73       0.0  T
   2    -52.4068170 -0.129673E+00  0.149E+00   11.80       1.0  T
   3    -52.4088147 -0.199762E-02  0.761E-01   11.83       1.0  T
   4    -52.4091653 -0.350624E-03  0.820E-02   11.85       1.0  T
   5    -52.4091722 -0.690764E-05  0.407E-02   11.85       1.0  T
   6    -52.4091749 -0.274548E-05  0.186E-03   11.85       7.6  T
   7    -52.4091750 -0.537025E-07  0.725E-04   11.85      19.5  T
   8    -52.4091750 -0.177249E-08  0.335E-04   11.85      42.2  T

   *** convergence criteria satisfied after 8 iterations ***

         #    Occupation            Energy/Eh            Energy/eV
      -------------------------------------------------------------
         1        2.0000           -0.6234421             -16.9647
       ...           ...                  ...                  ...
        43        2.0000           -0.4217198             -11.4756
        44        2.0000           -0.4205043             -11.4425
        45        2.0000           -0.4182082             -11.3800
        46        2.0000           -0.4167506             -11.3404
        47        2.0000           -0.4165068             -11.3337
        48        2.0000           -0.4163440             -11.3293
        49        2.0000           -0.4067918             -11.0694 (HOMO)
        50                          0.0286724               0.7802 (LUMO)
        51                          0.0559137               1.5215
        52                          0.0947741               2.5789
        53                          0.0995612               2.7092
        54                          0.1085861               2.9548
       ...                                ...                  ...
        98                          0.3278726               8.9219
      -------------------------------------------------------------
                  HL-Gap            0.4354642 Eh           11.8496 eV
             Fermi-level           -0.1890597 Eh           -5.1446 eV

 SCC (total)                   0 d,  0 h,  0 min,  0.070 sec
 SCC setup                      ...        0 min,  0.000 sec (  0.190%)
 Dispersion                     ...        0 min,  0.000 sec (  0.346%)
 classical contributions        ...        0 min,  0.000 sec (  0.086%)
 integral evaluation            ...        0 min,  0.003 sec (  4.341%)
 iterations                     ...        0 min,  0.053 sec ( 75.439%)
 molecular gradient             ...        0 min,  0.013 sec ( 18.697%)
 printout                       ...        0 min,  0.001 sec (  0.881%)

         :::::::::::::::::::::::::::::::::::::::::::::::::::::
         ::                     SUMMARY                     ::
         :::::::::::::::::::::::::::::::::::::::::::::::::::::
         :: total energy             -51.637891510803 Eh    ::
         :: gradient norm              0.000683840963 Eh/a0 ::
         :: HOMO-LUMO gap             11.849584337221 eV    ::
         ::.................................................::
         :: SCC energy               -52.409623125834 Eh    ::
         :: -> isotropic ES            0.008476628235 Eh    ::
         :: -> anisotropic ES          0.016290918804 Eh    ::
         :: -> anisotropic XC          0.031137056198 Eh    ::
         :: -> dispersion             -0.032615625765 Eh    ::
         :: repulsion energy           0.771731615031 Eh    ::
         :: add. restraining           0.000000000000 Eh    ::
         :: total charge              -0.000000000000 e     ::
         :::::::::::::::::::::::::::::::::::::::::::::::::::::

           ------------------------------------------------- 
          |                Numerical Hessian                |
           ------------------------------------------------- 
step length          :   0.00500
SCC accuracy         :   0.30000
Hessian scale factor :   1.00000
frozen atoms in %    :   0.00000    0
RMS gradient         :   0.00068
estimated CPU  time      0.20 min
estimated wall time      0.20 min

writing file <hessian>, containing the non-mass-weighted Hessian matrix in atomic units (Eₕ/Bohr²).

 projected vibrational frequencies (cm⁻¹)
eigval :       -0.00    -0.00    -0.00     0.00     0.00     0.00
eigval :       11.19    21.10    27.85    31.39    57.36    58.55
eigval :       60.18    89.10    90.09   108.62   117.26   118.52
eigval :      140.10   142.41   144.80   156.20   157.37   172.10
eigval :      232.80   232.84   240.51   280.92   314.87   387.94
eigval :      391.87   455.21   470.61   508.31   515.35   768.38
eigval :      768.66   769.17   772.26   779.41   792.20   811.44
eigval :      837.14   867.84   901.29   935.45   940.57   940.70
eigval :      968.06   997.05  1020.37  1032.43  1035.56  1035.69
eigval :     1052.49  1062.47  1075.89  1092.33  1097.39  1101.37
eigval :     1105.61  1109.02  1113.26  1115.42  1116.50  1132.57
eigval :     1139.83  1198.26  1202.91  1213.00  1213.69  1228.74
eigval :     1233.59  1245.60  1255.13  1261.92  1267.22  1274.39
eigval :     1276.06  1276.62  1283.83  1287.10  1293.04  1295.03
eigval :     1297.74  1299.41  1299.84  1317.96  1336.71  1352.68
eigval :     1365.24  1374.03  1377.37  1378.71  1379.31  1380.20
eigval :     1415.57  1415.57  1494.68  1494.72  1495.55  1495.79
eigval :     1496.91  1497.33  1498.87  1499.02  1500.55  1501.26
eigval :     1501.82  1502.19  1504.17  1504.54  1504.56  1506.32
eigval :     1507.78  1507.85  2953.46  2953.48  2953.94  2954.81
eigval :     2956.13  2957.83  2959.84  2962.27  2965.26  2968.64
eigval :     2972.01  2972.07  2972.20  2972.82  2972.89  2974.34
eigval :     2974.46  2975.72  2976.24  2976.69  2977.94  2979.33
eigval :     2979.51  2982.43  2982.63  2985.63  2988.91  2991.95
eigval :     3030.58  3030.60  3033.03  3033.03  3038.15  3038.19
           -------------------------------------------------
          |                Property Printout                |
           -------------------------------------------------

    * Orbital Energies and Occupations

         #    Occupation            Energy/Eh            Energy/eV
      -------------------------------------------------------------
         1        2.0000           -0.6234435             -16.9648
       ...           ...                  ...                  ...
        37        2.0000           -0.4359358             -11.8624
        38        2.0000           -0.4347965             -11.8314
        39        2.0000           -0.4297702             -11.6946
        40        2.0000           -0.4275977             -11.6355
        41        2.0000           -0.4273345             -11.6284
        42        2.0000           -0.4257473             -11.5852
        43        2.0000           -0.4217209             -11.4756
        44        2.0000           -0.4205061             -11.4426
        45        2.0000           -0.4182090             -11.3800
        46        2.0000           -0.4167507             -11.3404
        47        2.0000           -0.4165076             -11.3337
        48        2.0000           -0.4163442             -11.3293
        49        2.0000           -0.4067930             -11.0694 (HOMO)
        50                          0.0286712               0.7802 (LUMO)
        51                          0.0559123               1.5215
        52                          0.0947722               2.5789
        53                          0.0995611               2.7092
        54                          0.1085862               2.9548
        55                          0.1120841               3.0500
        56                          0.1126964               3.0666
        57                          0.1151085               3.1323
        58                          0.1192375               3.2446
        59                          0.1228466               3.3428
        60                          0.1297094               3.5296
       ...                                ...                  ...
        98                          0.3278725               8.9219
      -------------------------------------------------------------
                  HL-Gap            0.4354641 Eh           11.8496 eV
             Fermi-level           -0.1890609 Eh           -5.1446 eV

     #   Z          covCN         q      C6AA      α(0)
     1   6          3.752    -0.102    22.512     6.766
     2   6          3.801    -0.053    21.524     6.605
     3   6          3.803    -0.059    21.634     6.622
     4   6          3.803    -0.058    21.623     6.620
     5   6          3.803    -0.058    21.619     6.620
     6   6          3.803    -0.058    21.621     6.620
     7   6          3.803    -0.058    21.621     6.620
     8   6          3.803    -0.058    21.622     6.620
     9   6          3.803    -0.058    21.622     6.620
    10   6          3.803    -0.058    21.621     6.620
    11   6          3.803    -0.058    21.621     6.620
    12   6          3.803    -0.058    21.619     6.620
    13   6          3.803    -0.058    21.623     6.620
    14   6          3.803    -0.059    21.634     6.622
    15   6          3.801    -0.053    21.524     6.605
    16   6          3.752    -0.102    22.512     6.766
    17   1          0.925     0.033     2.550     2.497
    18   1          0.925     0.033     2.541     2.493
    19   1          0.925     0.033     2.541     2.493
    20   1          0.924     0.028     2.608     2.525
    21   1          0.924     0.028     2.608     2.525
    22   1          0.924     0.030     2.590     2.517
    23   1          0.924     0.030     2.590     2.517
    24   1          0.924     0.029     2.607     2.525
    25   1          0.924     0.029     2.607     2.525
    26   1          0.924     0.029     2.600     2.521
    27   1          0.924     0.029     2.600     2.521
    28   1          0.924     0.029     2.600     2.521
    29   1          0.924     0.029     2.600     2.521
    30   1          0.924     0.029     2.599     2.521
    31   1          0.924     0.029     2.599     2.521
    32   1          0.924     0.029     2.599     2.521
    33   1          0.924     0.029     2.599     2.521
    34   1          0.924     0.029     2.599     2.521
    35   1          0.924     0.029     2.599     2.521
    36   1          0.924     0.029     2.599     2.521
    37   1          0.924     0.029     2.599     2.521
    38   1          0.924     0.029     2.600     2.521
    39   1          0.924     0.029     2.600     2.521
    40   1          0.924     0.029     2.600     2.521
    41   1          0.924     0.029     2.600     2.521
    42   1          0.924     0.029     2.607     2.525
    43   1          0.924     0.029     2.607     2.525
    44   1          0.924     0.030     2.590     2.517
    45   1          0.924     0.030     2.590     2.517
    46   1          0.924     0.028     2.608     2.525
    47   1          0.924     0.028     2.608     2.525
    48   1          0.925     0.033     2.541     2.493
    49   1          0.925     0.033     2.550     2.497
    50   1          0.925     0.033     2.541     2.493

 Mol. C6AA /au·bohr⁶  :      16663.779080
 Mol. C8AA /au·bohr⁸  :     348638.874168
 Mol. α(0) /au        :        191.758051


Wiberg/Mayer (AO) data.
largest (>0.10) Wiberg bond orders for each atom

 ---------------------------------------------------------------------------
     #   Z sym  total        # sym  WBO       # sym  WBO       # sym  WBO
 ---------------------------------------------------------------------------
     1   6      3.997 --     2      1.019    18      0.988    19      0.988
                            17      0.988
     2   6      3.998 --     1      1.019     3      1.008    20      0.979
                            21      0.979
     3   6      3.997 --     2      1.008     4      1.007    23      0.978
                            22      0.978
     4   6      3.997 --     3      1.007     5      1.007    24      0.978
                            25      0.978
     5   6      3.997 --     4      1.007     6      1.007    27      0.978
                            26      0.978
     6   6      3.997 --     7      1.007     5      1.007    28      0.978
                            29      0.978
     7   6      3.997 --     6      1.007     8      1.007    31      0.978
                            30      0.978
     8   6      3.997 --     9      1.007     7      1.007    32      0.978
                            33      0.978
     9   6      3.997 --     8      1.007    10      1.007    35      0.978
                            34      0.978
    10   6      3.997 --    11      1.007     9      1.007    36      0.978
                            37      0.978
    11   6      3.997 --    10      1.007    12      1.007    39      0.978
                            38      0.978
    12   6      3.997 --    13      1.007    11      1.007    41      0.978
                            40      0.978
    13   6      3.997 --    14      1.007    12      1.007    42      0.978
                            43      0.978
    14   6      3.997 --    15      1.008    13      1.007    45      0.978
                            44      0.978
    15   6      3.998 --    16      1.019    14      1.008    46      0.979
                            47      0.979
    16   6      3.997 --    15      1.019    48      0.988    50      0.988
                            49      0.988
    17   1      0.999 --     1      0.988
    18   1      0.999 --     1      0.988
    19   1      0.999 --     1      0.988
    20   1      0.999 --     2      0.979
    21   1      0.999 --     2      0.979
    22   1      0.999 --     3      0.978
    23   1      0.999 --     3      0.978
    24   1      0.999 --     4      0.978
    25   1      0.999 --     4      0.978
    26   1      0.999 --     5      0.978
    27   1      0.999 --     5      0.978
    28   1      0.999 --     6      0.978
    29   1      0.999 --     6      0.978
    30   1      0.999 --     7      0.978
    31   1      0.999 --     7      0.978
    32   1      0.999 --     8      0.978
    33   1      0.999 --     8      0.978
    34   1      0.999 --     9      0.978
    35   1      0.999 --     9      0.978
    36   1      0.999 --    10      0.978
    37   1      0.999 --    10      0.978
    38   1      0.999 --    11      0.978
    39   1      0.999 --    11      0.978
    40   1      0.999 --    12      0.978
    41   1      0.999 --    12      0.978
    42   1      0.999 --    13      0.978
    43   1      0.999 --    13      0.978
    44   1      0.999 --    14      0.978
    45   1      0.999 --    14      0.978
    46   1      0.999 --    15      0.979
    47   1      0.999 --    15      0.979
    48   1      0.999 --    16      0.988
    49   1      0.999 --    16      0.988
    50   1      0.999 --    16      0.988
 ---------------------------------------------------------------------------

Topologies differ in total number of bonds
Writing topology from bond orders to xtbtopo.mol

molecular dipole:
                 x           y           z       tot (Debye)
 q only:       -0.000      -0.000      -0.000
   full:       -0.000      -0.000      -0.000       0.000
molecular quadrupole (traceless):
                xx          xy          yy          xz          yz          zz
 q only:        1.121      -0.575      -0.077       0.138      -0.243      -1.044
  q+dip:       -3.264       1.979      -1.044      -0.476       1.343       4.308
   full:       -1.223       0.744      -0.594      -0.179       0.605       1.817

           -------------------------------------------------
          |               Frequency Printout                |
           -------------------------------------------------
 projected vibrational frequencies (cm⁻¹)
eigval :       -0.00    -0.00    -0.00     0.00     0.00     0.00
eigval :       11.19    21.10    27.85    31.39    57.36    58.55
eigval :       60.18    89.10    90.09   108.62   117.26   118.52
eigval :      140.10   142.41   144.80   156.20   157.37   172.10
eigval :      232.80   232.84   240.51   280.92   314.87   387.94
eigval :      391.87   455.21   470.61   508.31   515.35   768.38
eigval :      768.66   769.17   772.26   779.41   792.20   811.44
eigval :      837.14   867.84   901.29   935.45   940.57   940.70
eigval :      968.06   997.05  1020.37  1032.43  1035.56  1035.69
eigval :     1052.49  1062.47  1075.89  1092.33  1097.39  1101.37
eigval :     1105.61  1109.02  1113.26  1115.42  1116.50  1132.57
eigval :     1139.83  1198.26  1202.91  1213.00  1213.69  1228.74
eigval :     1233.59  1245.60  1255.13  1261.92  1267.22  1274.39
eigval :     1276.06  1276.62  1283.83  1287.10  1293.04  1295.03
eigval :     1297.74  1299.41  1299.84  1317.96  1336.71  1352.68
eigval :     1365.24  1374.03  1377.37  1378.71  1379.31  1380.20
eigval :     1415.57  1415.57  1494.68  1494.72  1495.55  1495.79
eigval :     1496.91  1497.33  1498.87  1499.02  1500.55  1501.26
eigval :     1501.82  1502.19  1504.17  1504.54  1504.56  1506.32
eigval :     1507.78  1507.85  2953.46  2953.48  2953.94  2954.81
eigval :     2956.13  2957.83  2959.84  2962.27  2965.26  2968.64
eigval :     2972.01  2972.07  2972.20  2972.82  2972.89  2974.34
eigval :     2974.46  2975.72  2976.24  2976.69  2977.94  2979.33
eigval :     2979.51  2982.43  2982.63  2985.63  2988.91  2991.95
eigval :     3030.58  3030.60  3033.03  3033.03  3038.15  3038.19
 reduced masses (amu)
    1:      2.26    2:      4.41    3:      3.99    4:      2.67    5:      4.52    6:      3.47
    7:      3.89    8:      3.92    9:      1.51   10:      3.59   11:      3.74   12:      3.22
   13:      1.54   14:      2.85   15:      1.59   16:      3.56   17:      1.67   18:      2.52
   19:      1.79   20:      2.25   21:      4.27   22:      1.94   23:      2.08   24:      3.42
   25:      1.12   26:      1.12   27:      3.25   28:      4.09   29:      3.11   30:      3.03
   31:      3.73   32:      3.03   33:      3.35   34:      3.11   35:      3.17   36:      1.06
   37:      1.06   38:      1.07   39:      1.08   40:      1.10   41:      1.12   42:      1.15
   43:      1.18   44:      1.20   45:      1.20   46:      1.20   47:      1.75   48:      1.74
   49:      1.17   50:      1.13   51:      1.08   52:      5.86   53:      4.75   54:      1.03
   55:      5.13   56:      3.52   57:      4.29   58:      3.12   59:      3.36   60:      2.05
   61:      2.26   62:      2.89   63:      2.32   64:      2.55   65:      2.80   66:      2.33
   67:      3.08   68:      2.01   69:      1.85   70:      1.23   71:      1.66   72:      1.51
   73:      1.27   74:      1.39   75:      1.28   76:      1.29   77:      1.02   78:      1.04
   79:      1.20   80:      1.27   81:      1.07   82:      1.14   83:      1.11   84:      1.12
   85:      1.28   86:      1.12   87:      1.12   88:      1.30   89:      1.33   90:      1.38
   91:      1.43   92:      1.50   93:      1.73   94:      1.60   95:      1.65   96:      1.63
   97:      1.23   98:      1.23   99:      1.09  100:      1.09  101:      1.09  102:      1.09
  103:      1.08  104:      1.10  105:      1.08  106:      1.10  107:      1.10  108:      1.09
  109:      1.09  110:      1.11  111:      1.08  112:      1.05  113:      1.05  114:      1.07
  115:      1.06  116:      1.06  117:      1.09  118:      1.09  119:      1.09  120:      1.09
  121:      1.09  122:      1.09  123:      1.10  124:      1.10  125:      1.10  126:      1.10
  127:      1.05  128:      1.05  129:      1.10  130:      1.05  131:      1.05  132:      1.05
  133:      1.05  134:      1.10  135:      1.05  136:      1.05  137:      1.04  138:      1.10
  139:      1.05  140:      1.05  141:      1.11  142:      1.05  143:      1.05  144:      1.05
  145:      1.09  146:      1.09  147:      1.09  148:      1.09  149:      1.03  150:      1.03
 IR intensities (km·mol⁻¹)
    1:      0.00    2:      0.03    3:      0.00    4:      0.00    5:      0.00    6:      0.00
    7:      0.01    8:      0.01    9:      0.00   10:      0.00   11:      0.00   12:      0.01
   13:      0.00   14:      0.00   15:      0.00   16:      0.04   17:      0.00   18:      0.01
   19:      0.00   20:      0.00   21:      0.00   22:      0.00   23:      0.00   24:      0.00
   25:      0.00   26:      0.00   27:      0.10   28:      0.03   29:      0.00   30:      0.15
   31:      0.00   32:      0.00   33:      0.10   34:      0.04   35:      0.00   36:      0.00
   37:     19.40   38:     14.65   39:      0.00   40:      2.53   41:      0.00   42:      1.55
   43:      0.00   44:      1.17   45:      0.00   46:      0.79   47:      0.00   48:      7.13
   49:      0.00   50:      0.33   51:      0.00   52:      0.06   53:      0.00   54:      0.00
   55:      0.00   56:      1.31   57:      0.20   58:      0.00   59:      0.00   60:      0.00
   61:      0.02   62:      0.04   63:      0.00   64:      0.25   65:      0.00   66:      8.78
   67:      0.00   68:      0.00   69:      0.35   70:      2.36   71:      0.00   72:      0.27
   73:      0.00   74:      0.00   75:      0.33   76:      0.06   77:      0.00   78:      0.06
   79:      0.00   80:      0.00   81:      0.00   82:      0.00   83:      0.05   84:      0.00
   85:      0.61   86:      0.00   87:      0.00   88:      0.00   89:      0.66   90:      0.00
Refinement of some symmetry elements was terminated before convergence was reached.
Some symmetry elements may remain unidentified.
Molecule has the following symmetry elements: (i) (C2) (sigma) 
It seems to be the C2h point group
   91:      0.56   92:      0.00   93:      0.00   94:      0.48   95:      0.01   96:      0.00
   97:      0.00   98:      1.72   99:      0.00  100:      0.00  101:      0.14  102:      0.00
  103:      0.00  104:      0.06  105:      0.16  106:      0.00  107:      0.14  108:      0.00
  109:      0.00  110:      0.24  111:      0.02  112:      4.74  113:      0.00  114:      0.00
  115:      2.73  116:      0.00  117:      0.00  118:      0.03  119:      0.00  120:      0.05
  121:      0.00  122:      0.13  123:      0.00  124:      0.50  125:      0.00  126:      4.44
  127:      0.00  128:      0.01  129:      0.00  130:      0.13  131:      0.00  132:      0.00
  133:      0.03  134:     42.56  135:      0.55  136:      0.00  137:      0.00  138:      0.00
  139:      1.58  140:      0.01  141:    660.00  142:     37.64  143:      0.00  144:    519.37
  145:    128.80  146:      0.14  147:      0.09  148:    123.54  149:     69.26  150:      0.01
 Raman intensities (Ä⁴*amu⁻¹)
    1:      0.00    2:      0.00    3:      0.00    4:      0.00    5:      0.00    6:      0.00
    7:      0.00    8:      0.00    9:      0.00   10:      0.00   11:      0.00   12:      0.00
   13:      0.00   14:      0.00   15:      0.00   16:      0.00   17:      0.00   18:      0.00
   19:      0.00   20:      0.00   21:      0.00   22:      0.00   23:      0.00   24:      0.00
   25:      0.00   26:      0.00   27:      0.00   28:      0.00   29:      0.00   30:      0.00
   31:      0.00   32:      0.00   33:      0.00   34:      0.00   35:      0.00   36:      0.00
   37:      0.00   38:      0.00   39:      0.00   40:      0.00   41:      0.00   42:      0.00
   43:      0.00   44:      0.00   45:      0.00   46:      0.00   47:      0.00   48:      0.00
   49:      0.00   50:      0.00   51:      0.00   52:      0.00   53:      0.00   54:      0.00
   55:      0.00   56:      0.00   57:      0.00   58:      0.00   59:      0.00   60:      0.00
   61:      0.00   62:      0.00   63:      0.00   64:      0.00   65:      0.00   66:      0.00
   67:      0.00   68:      0.00   69:      0.00   70:      0.00   71:      0.00   72:      0.00
   73:      0.00   74:      0.00   75:      0.00   76:      0.00   77:      0.00   78:      0.00
   79:      0.00   80:      0.00   81:      0.00   82:      0.00   83:      0.00   84:      0.00
   85:      0.00   86:      0.00   87:      0.00   88:      0.00   89:      0.00   90:      0.00
   91:      0.00   92:      0.00   93:      0.00   94:      0.00   95:      0.00   96:      0.00
   97:      0.00   98:      0.00   99:      0.00  100:      0.00  101:      0.00  102:      0.00
  103:      0.00  104:      0.00  105:      0.00  106:      0.00  107:      0.00  108:      0.00
  109:      0.00  110:      0.00  111:      0.00  112:      0.00  113:      0.00  114:      0.00
  115:      0.00  116:      0.00  117:      0.00  118:      0.00  119:      0.00  120:      0.00
  121:      0.00  122:      0.00  123:      0.00  124:      0.00  125:      0.00  126:      0.00
  127:      0.00  128:      0.00  129:      0.00  130:      0.00  131:      0.00  132:      0.00
  133:      0.00  134:      0.00  135:      0.00  136:      0.00  137:      0.00  138:      0.00
  139:      0.00  140:      0.00  141:      0.00  142:      0.00  143:      0.00  144:      0.00
  145:      0.00  146:      0.00  147:      0.00  148:      0.00  149:      0.00  150:      0.00
 output can be read by thermo (or use thermo option).
 writing <g98.out> molden fake output.
 recommended (thermochemical) frequency scaling factor: 1.0
           -------------------------------------------------
          |             Thermodynamic Functions             |
           -------------------------------------------------

c2h symmetry found (for desy threshold:  0.10E+00) used in thermo

          ...................................................
          :                      SETUP                      :
          :.................................................:
          :  # frequencies                         144      :
          :  # imaginary freq.                       0      :
          :  linear?                             false      :
          :  only rotor calc.                    false      :
          :  symmetry                              c2h      :
          :  rotational number                       2      :
          :  scaling factor                  1.0000000      :
          :  rotor cutoff                   50.0000000 cm⁻¹ :
          :  imag. cutoff                  -20.0000000 cm⁻¹ :
          :.................................................:

    mode    ω/cm⁻¹     T·S(HO)/kcal·mol⁻¹    T·S(FR)/kcal·mol⁻¹   T·S(vib)
   ------------------------------------------------------------------------
       1     11.19    -2.32173 (  0.25%)    -1.49986 ( 99.75%)    -1.50192
       2     21.10    -1.94631 (  3.07%)    -1.31210 ( 96.93%)    -1.33159
       3     27.85    -1.78203 (  8.78%)    -1.22988 ( 91.22%)    -1.27836
       4     31.39    -1.71129 ( 13.44%)    -1.19445 ( 86.56%)    -1.26393
       5     57.36    -1.35535 ( 63.40%)    -1.01583 ( 36.60%)    -1.23110
       6     58.55    -1.34327 ( 65.29%)    -1.00975 ( 34.71%)    -1.22750
       7     60.18    -1.32717 ( 67.72%)    -1.00165 ( 32.28%)    -1.22211
       8     89.10    -1.09714 ( 90.98%)    -0.88540 (  9.02%)    -1.07803
       9     90.09    -1.09068 ( 91.33%)    -0.88213 (  8.67%)    -1.07261
      10    108.62    -0.98192 ( 95.70%)    -0.82670 (  4.30%)    -0.97525
      11    117.26    -0.93767 ( 96.80%)    -0.80402 (  3.20%)    -0.93340
      12    118.52    -0.93151 ( 96.93%)    -0.80086 (  3.07%)    -0.92750
      13    140.10    -0.83555 ( 98.40%)    -0.75131 (  1.60%)    -0.83420
      14    142.41    -0.82624 ( 98.50%)    -0.74647 (  1.50%)    -0.82504
      15    144.80    -0.81675 ( 98.60%)    -0.74153 (  1.40%)    -0.81570
      16    156.20    -0.77380 ( 98.96%)    -0.71910 (  1.04%)    -0.77323
      17    157.37    -0.76959 ( 98.99%)    -0.71689 (  1.01%)    -0.76906
      18    172.10    -0.71926 ( 99.29%)    -0.69037 (  0.71%)    -0.71906
      19    232.80    -0.55374 ( 99.79%)    -0.60088 (  0.21%)    -0.55384
      20    232.84    -0.55364 ( 99.79%)    -0.60082 (  0.21%)    -0.55374
      21    240.51    -0.53640 ( 99.81%)    -0.59123 (  0.19%)    -0.53650
      22    280.92    -0.45559 ( 99.90%)    -0.54522 (  0.10%)    -0.45568
   ------------------------------------------------------------------------

   temp. (K)  partition function   enthalpy   heat capacity  entropy
                                   cal/mol     cal/K/mol   cal/K/mol   J/K/mol
 298.15  VIB  0.707E+11            12129.256     66.335     80.977
         ROT  0.297E+07              888.727      2.981     32.597
         INT  0.210E+18            13017.983     69.316    113.575
         TR   0.104E+27             1481.212      4.968     42.154
         TOT                       14499.1957    74.2838   155.7288   651.5692

       T/K    H(0)-H(T)+PV         H(T)/Eh          T*S/Eh         G(T)/Eh
   ------------------------------------------------------------------------
    298.15    0.231059E-01    0.491795E+00    0.739918E-01    0.417803E+00
   ------------------------------------------------------------------------

         :::::::::::::::::::::::::::::::::::::::::::::::::::::
         ::                  THERMODYNAMIC                  ::
         :::::::::::::::::::::::::::::::::::::::::::::::::::::
         :: total free energy         -51.220088455254 Eh   ::
         ::.................................................::
         :: total energy              -51.637891511092 Eh   ::
         :: zero point energy           0.468688886828 Eh   ::
         :: G(RRHO) w/o ZPVE           -0.050885830990 Eh   ::
         :: G(RRHO) contrib.            0.417803055838 Eh   ::
         :::::::::::::::::::::::::::::::::::::::::::::::::::::

           -------------------------------------------------
          | TOTAL ENERGY              -51.637891511092 Eh   |
          | TOTAL ENTHALPY            -51.146096685105 Eh   |
          | TOTAL FREE ENERGY         -51.220088455254 Eh   |
          | GRADIENT NORM               0.000684134832 Eh/α |
Note: The following floating-point exceptions are signalling: IEEE_UNDERFLOW_FLAG
normal termination of xtb
          | HOMO-LUMO GAP              11.849582084203 eV   |
           -------------------------------------------------

------------------------------------------------------------------------
 * finished run on 2026/08/28 at 19:14:37.641     
------------------------------------------------------------------------
 total:
 * wall-time:     0 d,  0 h,  0 min, 13.009 sec
 *  cpu-time:     0 d,  0 h,  0 min, 13.001 sec
 * ratio c/w:     0.999 speedup
 SCF:
 * wall-time:     0 d,  0 h,  0 min,  0.070 sec
 *  cpu-time:     0 d,  0 h,  0 min,  0.070 sec
 * ratio c/w:     0.998 speedup
 analytical hessian:
 * wall-time:     0 d,  0 h,  0 min, 12.904 sec
 *  cpu-time:     0 d,  0 h,  0 min, 12.898 sec
 * ratio c/w:     1.000 speedup

