      -----------------------------------------------------------      
     |                   =====================                   |     
     |                           x T B                           |     
     |                   =====================                   |     
     |                         S. Grimme                         |     
     |          Mulliken Center for Theoretical Chemistry        |     
     |                    University of Bonn                     |     
      -----------------------------------------------------------      

   * xtb version 6.7.1 (unknown) compiled by 'root@buildkitsandbox' on 2026-08-28

   xtb is free software: you can redistribute it and/or modify it under
   the terms of the GNU Lesser General Public License as published by
   the Free Software Foundation, either version 3 of the License, or
   (at your option) any later version.
   
   xtb is distributed in the hope that it will be useful,
   but WITHOUT ANY WARRANTY; without even the implied warranty of
   MERCHANTABILITY or FITNESS FOR A PARTICULAR PURPOSE.  See the
   GNU Lesser General Public License for more details.
   
   Cite this work as:
   * C. Bannwarth, E. Caldeweyher, S. Ehlert, A. Hansen, P. Pracht,
     J. Seibert, S. Spicher, S. Grimme, WIREs Comput. Mol. Sci., 2020, 11,
     e01493. DOI: 10.1002/wcms.1493
   
   for GFN2-xTB:
   * C. Bannwarth, S. Ehlert and S. Grimme., J. Chem. Theory Comput., 2019,
     15, 1652-1671. DOI: 10.1021/acs.jctc.8b01176
   for GFN1-xTB:
   * S. Grimme, C. Bannwarth, P. Shushkov, J. Chem. Theory Comput., 2017,
     13, 1989-2009. DOI: 10.1021/acs.jctc.7b00118
   for GFN0-xTB:
   * P. Pracht, E. Caldeweyher, S. Ehlert, S. Grimme, ChemRxiv, 2019, preprint.
     DOI: 10.26434/chemrxiv.8326202.v1
   for GFN-FF:
   * S. Spicher and S. Grimme, Angew. Chem. Int. Ed., 2020, 59, 15665-15673.
     DOI: 10.1002/anie.202004239
   
   for ALPB and GBSA implicit solvation:
   * S. Ehlert, M. Stahn, S. Spicher, S. Grimme, J. Chem. Theory Comput.,
     2021, 17, 4250-4261. DOI: 10.1021/acs.jctc.1c00471
   
   for ddCOSMO and CPCM-X implicit solvation:
   * M. Stahn, S. Ehlert, S. Grimme, J. Phys. Chem. A,
     2023, XX, XXXX-XXXX. DOI: 10.1021/acs.jpca.3c04382
   
   for DFT-D4:
   * E. Caldeweyher, C. Bannwarth and S. Grimme, J. Chem. Phys., 2017,
     147, 034112. DOI: 10.1063/1.4993215
   * E. Caldeweyher, S. Ehlert, A. Hansen, H. Neugebauer, S. Spicher,
     C. Bannwarth and S. Grimme, J. Chem. Phys., 2019, 150, 154122.
     DOI: 10.1063/1.5090222
   * E. Caldeweyher, J.-M. Mewes, S. Ehlert and S. Grimme, Phys. Chem. Chem. Phys.
     2020, 22, 8499-8512. DOI: 10.1039/D0CP00502A
   
   for sTDA-xTB:
   * S. Grimme and C. Bannwarth, J. Chem. Phys., 2016, 145, 054103.
     DOI: 10.1063/1.4959605
   
   in the mass-spec context:
   * V. Asgeirsson, C. Bauer and S. Grimme, Chem. Sci., 2017, 8, 4879.
     DOI: 10.1039/c7sc00601b
   * J. Koopman and S. Grimme, ACS Omega 2019, 4, 12, 15120-15133.
     DOI: 10.1021/acsomega.9b02011
   
   for metadynamics refer to:
   * S. Grimme, J. Chem. Theory Comput., 2019, 155, 2847-2862
     DOI: 10.1021/acs.jctc.9b00143
   
   for SPH calculations refer to:
   * S. Spicher and S. Grimme, J. Chem. Theory Comput., 2021, 17, 1701-1714
     DOI: 10.1021/acs.jctc.0c01306
   
   for ONIOM refer to:
   * C. Plett, A. Katbashev, S. Ehlert, S. Grimme, M. Bursch,
     Phys. Chem. Chem. Phys., 2023, 25, 17860-17868. DOI: 10.1039/D3CP02178E
   
   for DIPRO refer to:
   * J. Kohn, N. Gildemeister, S. Grimme, D. Fazzi, A. Hansen,
     J. Chem. Phys. 159, 144106 (2023). DOI: 10.1063/5.0167484
   
   for PTB refer to:
   * S. Grimme, M. Mueller, A. Hansen, J. Chem. Phys., 2023, 158, 124111.
     DOI: 10.1063/5.0137838
   
   with help from (in alphabetical order)
   P. Atkinson, C. Bannwarth, F. Bohle, G. Brandenburg, E. Caldeweyher,
   M. Checinski, S. Dohm, S. Ehlert, S. Ehrlich, M. Friede, T. Froitzheim,
   I. Gerasimov, C. Hölzer, A. Katbashev, J. Kohn, J. Koopman, C. Lavigne,
   S. Lehtola, F. März, M. Müller, F. Musil, H. Neugebauer, J. Pisarek,
   C. Plett, P. Pracht, F. Pultar, J. Seibert, P. Shushkov, S. Spicher,
   M. Stahn, M. Steiner, T. Strunk, J. Stückrath, T. Rose, and J. Unsleber
   
 * started run on 2026/08/28 at 19:09:47.882     
   ID    Z sym.   atoms
    1    6 C      1-16
    2    1 H      17-50

           -------------------------------------------------
          |                Calculation Setup                |
           -------------------------------------------------

          program call               : xtb in.xyz --gfn 2 --grad --norestart
          hostname                   : 756d39058c4f
          coordinate file            : in.xyz
          random seed                :            1206722187


           -------------------------------------------------
          |                 G F N 2 - x T B                 |
           -------------------------------------------------

        Reference                      10.1021/acs.jctc.8b01176
      * Hamiltonian:
        H0-scaling (s, p, d)           1.850000    2.230000    2.230000
        zeta-weighting                 0.500000
      * Dispersion:
        s8                             2.700000
        a1                             0.520000
        a2                             5.000000
        s9                             5.000000
      * Repulsion:
        kExp                           1.500000    1.000000
        rExp                           1.000000
      * Coulomb:
        alpha                          2.000000
        third order                    shell-resolved
        anisotropic                    true
        a3                             3.000000
        a5                             4.000000
        cn-shift                       1.200000
        cn-exp                         4.000000
        max-rad                        5.000000


          ...................................................
          :                      SETUP                      :
          :.................................................:
          :  # basis functions                  98          :
          :  # atomic orbitals                  98          :
          :  # shells                           66          :
          :  # electrons                        98          :
          :  max. iterations                   250          :
          :  Hamiltonian                  GFN2-xTB          :
          :  restarted?                      false          :
          :  GBSA solvation                  false          :
          :  PC potential                    false          :
          :  electronic temp.          300.0000000     K    :
          :  accuracy                    1.0000000          :
          :  -> integral cutoff          0.2500000E+02      :
          :  -> integral neglect         0.1000000E-07      :
          :  -> SCF convergence          0.1000000E-05 Eh   :
          :  -> wf. convergence          0.1000000E-03 e    :
          :  Broyden damping             0.4000000          :
          :  net charge                          0          :
          :  unpaired electrons                  0          :
          ...................................................

 iter      E             dE          RMSdq      gap      omega  full diag
   1    -52.2510653 -0.522511E+02  0.266E+00   11.79       0.0  T
   2    -52.3835147 -0.132449E+00  0.150E+00   11.86       1.0  T
   3    -52.3854083 -0.189360E-02  0.769E-01   11.89       1.0  T
   4    -52.3857727 -0.364445E-03  0.833E-02   11.91       1.0  T
   5    -52.3857787 -0.598809E-05  0.405E-02   11.91       1.0  T
   6    -52.3857817 -0.299456E-05  0.197E-03   11.91       7.2  T
   7    -52.3857818 -0.536575E-07  0.769E-04   11.91      18.4  T
   8    -52.3857818 -0.188432E-08  0.349E-04   11.91      40.5  T

   *** convergence criteria satisfied after 8 iterations ***

         #    Occupation            Energy/Eh            Energy/eV
      -------------------------------------------------------------
         1        2.0000           -0.6226831             -16.9441
       ...           ...                  ...                  ...
        43        2.0000           -0.4213100             -11.4644
        44        2.0000           -0.4184181             -11.3857
        45        2.0000           -0.4180811             -11.3766
        46        2.0000           -0.4171600             -11.3515
        47        2.0000           -0.4166944             -11.3388
        48        2.0000           -0.4166751             -11.3383
        49        2.0000           -0.4041982             -10.9988 (HOMO)
        50                          0.0334230               0.9095 (LUMO)
        51                          0.0604957               1.6462
        52                          0.0920593               2.5051
        53                          0.0987576               2.6873
        54                          0.1010181               2.7488
       ...                                ...                  ...
        98                          0.3194518               8.6927
      -------------------------------------------------------------
                  HL-Gap            0.4376212 Eh           11.9083 eV
             Fermi-level           -0.1853876 Eh           -5.0447 eV

 SCC (total)                   0 d,  0 h,  0 min,  0.119 sec
 SCC setup                      ...        0 min,  0.000 sec (  0.101%)
 Dispersion                     ...        0 min,  0.000 sec (  0.218%)
 classical contributions        ...        0 min,  0.000 sec (  0.053%)
 integral evaluation            ...        0 min,  0.006 sec (  4.911%)
 iterations                     ...        0 min,  0.064 sec ( 53.783%)
 molecular gradient             ...        0 min,  0.036 sec ( 30.271%)
 printout                       ...        0 min,  0.013 sec ( 10.650%)

         :::::::::::::::::::::::::::::::::::::::::::::::::::::
         ::                     SUMMARY                     ::
         :::::::::::::::::::::::::::::::::::::::::::::::::::::
         :: total energy             -51.636811629032 Eh    ::
         :: gradient norm              0.022312670962 Eh/a0 ::
         :: HOMO-LUMO gap             11.908277955499 eV    ::
         ::.................................................::
         :: SCC energy               -52.386223643159 Eh    ::
         :: -> isotropic ES            0.008245231745 Eh    ::
         :: -> anisotropic ES          0.017144249087 Eh    ::
         :: -> anisotropic XC          0.032225324336 Eh    ::
         :: -> dispersion             -0.032653316571 Eh    ::
         :: repulsion energy           0.749412014128 Eh    ::
         :: add. restraining           0.000000000000 Eh    ::
         :: total charge               0.000000000000 e     ::
         :::::::::::::::::::::::::::::::::::::::::::::::::::::

           -------------------------------------------------
          |                Property Printout                |
           -------------------------------------------------

    * Orbital Energies and Occupations

         #    Occupation            Energy/Eh            Energy/eV
      -------------------------------------------------------------
         1        2.0000           -0.6226831             -16.9441
       ...           ...                  ...                  ...
        37        2.0000           -0.4357772             -11.8581
        38        2.0000           -0.4351171             -11.8401
        39        2.0000           -0.4310709             -11.7300
        40        2.0000           -0.4291545             -11.6779
        41        2.0000           -0.4278214             -11.6416
        42        2.0000           -0.4269427             -11.6177
        43        2.0000           -0.4213100             -11.4644
        44        2.0000           -0.4184181             -11.3857
        45        2.0000           -0.4180811             -11.3766
        46        2.0000           -0.4171600             -11.3515
        47        2.0000           -0.4166944             -11.3388
        48        2.0000           -0.4166751             -11.3383
        49        2.0000           -0.4041982             -10.9988 (HOMO)
        50                          0.0334230               0.9095 (LUMO)
        51                          0.0604957               1.6462
        52                          0.0920593               2.5051
        53                          0.0987576               2.6873
        54                          0.1010181               2.7488
        55                          0.1048357               2.8527
        56                          0.1054406               2.8692
        57                          0.1081343               2.9425
        58                          0.1124022               3.0586
        59                          0.1151545               3.1335
        60                          0.1233990               3.3579
       ...                                ...                  ...
        98                          0.3194518               8.6927
      -------------------------------------------------------------
                  HL-Gap            0.4376212 Eh           11.9083 eV
             Fermi-level           -0.1853876 Eh           -5.0447 eV

     #   Z          covCN         q      C6AA      α(0)
     1   6          3.750    -0.100    22.472     6.761
     2   6          3.800    -0.052    21.505     6.603
     3   6          3.802    -0.058    21.621     6.620
     4   6          3.802    -0.058    21.615     6.619
     5   6          3.802    -0.058    21.610     6.618
     6   6          3.802    -0.058    21.613     6.619
     7   6          3.802    -0.058    21.613     6.619
     8   6          3.802    -0.058    21.613     6.619
     9   6          3.802    -0.058    21.613     6.619
    10   6          3.802    -0.058    21.613     6.619
    11   6          3.802    -0.058    21.613     6.619
    12   6          3.802    -0.058    21.610     6.618
    13   6          3.802    -0.058    21.615     6.619
    14   6          3.802    -0.058    21.621     6.620
    15   6          3.800    -0.052    21.505     6.603
    16   6          3.750    -0.100    22.472     6.761
    17   1          0.924     0.031     2.573     2.508
    18   1          0.924     0.032     2.557     2.501
    19   1          0.924     0.032     2.557     2.501
    20   1          0.924     0.028     2.611     2.527
    21   1          0.924     0.028     2.611     2.527
    22   1          0.924     0.030     2.591     2.517
    23   1          0.924     0.030     2.591     2.517
    24   1          0.924     0.028     2.609     2.526
    25   1          0.924     0.028     2.609     2.526
    26   1          0.924     0.029     2.603     2.523
    27   1          0.924     0.029     2.603     2.523
    28   1          0.924     0.029     2.603     2.523
    29   1          0.924     0.029     2.603     2.523
    30   1          0.924     0.029     2.603     2.523
    31   1          0.924     0.029     2.603     2.523
    32   1          0.924     0.029     2.602     2.523
    33   1          0.924     0.029     2.602     2.523
    34   1          0.924     0.029     2.602     2.523
    35   1          0.924     0.029     2.602     2.523
    36   1          0.924     0.029     2.603     2.523
    37   1          0.924     0.029     2.603     2.523
    38   1          0.924     0.029     2.603     2.523
    39   1          0.924     0.029     2.603     2.523
    40   1          0.924     0.029     2.603     2.523
    41   1          0.924     0.029     2.603     2.523
    42   1          0.924     0.028     2.609     2.526
    43   1          0.924     0.028     2.609     2.526
    44   1          0.924     0.030     2.591     2.517
    45   1          0.924     0.030     2.591     2.517
    46   1          0.924     0.028     2.611     2.527
    47   1          0.924     0.028     2.611     2.527
    48   1          0.924     0.032     2.557     2.500
    49   1          0.924     0.031     2.573     2.508
    50   1          0.924     0.032     2.557     2.501

 Mol. C6AA /au·bohr⁶  :      16672.943020
 Mol. C8AA /au·bohr⁸  :     348729.014270
 Mol. α(0) /au        :        191.821487


Wiberg/Mayer (AO) data.
largest (>0.10) Wiberg bond orders for each atom

 ---------------------------------------------------------------------------
     #   Z sym  total        # sym  WBO       # sym  WBO       # sym  WBO
 ---------------------------------------------------------------------------
     1   6      3.997 --     2      1.020    18      0.988    19      0.988
                            17      0.987
     2   6      3.997 --     1      1.020     3      1.008    21      0.978
                            20      0.978
     3   6      3.997 --     2      1.008     4      1.007    23      0.977
                            22      0.977
     4   6      3.997 --     3      1.007     5      1.007    24      0.977
                            25      0.977
     5   6      3.997 --     4      1.007     6      1.007    27      0.977
                            26      0.977
     6   6      3.996 --     5      1.007     7      1.007    28      0.977
                            29      0.977
     7   6      3.996 --     6      1.007     8      1.007    31      0.977
                            30      0.977
     8   6      3.996 --     9      1.007     7      1.007    32      0.977
                            33      0.977
     9   6      3.996 --     8      1.007    10      1.007    35      0.977
                            34      0.977
    10   6      3.996 --    11      1.007     9      1.007    36      0.977
                            37      0.977
    11   6      3.996 --    12      1.007    10      1.007    39      0.977
                            38      0.977
    12   6      3.997 --    13      1.007    11      1.007    41      0.977
                            40      0.977
    13   6      3.997 --    14      1.007    12      1.007    42      0.977
                            43      0.977
    14   6      3.997 --    15      1.008    13      1.007    45      0.977
                            44      0.977
    15   6      3.997 --    16      1.020    14      1.008    46      0.978
                            47      0.978
    16   6      3.997 --    15      1.020    48      0.988    50      0.988
                            49      0.987
    17   1      0.999 --     1      0.987
    18   1      0.999 --     1      0.988
    19   1      0.999 --     1      0.988
    20   1      0.999 --     2      0.978
    21   1      0.999 --     2      0.978
    22   1      0.999 --     3      0.977
    23   1      0.999 --     3      0.977
    24   1      0.999 --     4      0.977
    25   1      0.999 --     4      0.977
    26   1      0.999 --     5      0.977
    27   1      0.999 --     5      0.977
    28   1      0.999 --     6      0.977
    29   1      0.999 --     6      0.977
    30   1      0.999 --     7      0.977
    31   1      0.999 --     7      0.977
    32   1      0.999 --     8      0.977
    33   1      0.999 --     8      0.977
    34   1      0.999 --     9      0.977
    35   1      0.999 --     9      0.977
    36   1      0.999 --    10      0.977
    37   1      0.999 --    10      0.977
    38   1      0.999 --    11      0.977
    39   1      0.999 --    11      0.977
    40   1      0.999 --    12      0.977
    41   1      0.999 --    12      0.977
    42   1      0.999 --    13      0.977
    43   1      0.999 --    13      0.977
    44   1      0.999 --    14      0.977
    45   1      0.999 --    14      0.977
    46   1      0.999 --    15      0.978
    47   1      0.999 --    15      0.978
    48   1      0.999 --    16      0.988
    49   1      0.999 --    16      0.987
    50   1      0.999 --    16      0.988
 ---------------------------------------------------------------------------

Topologies differ in total number of bonds
Writing topology from bond orders to xtbtopo.mol

molecular dipole:
                 x           y           z       tot (Debye)
 q only:        0.000       0.000      -0.000
   full:        0.000       0.000      -0.000       0.000
molecular quadrupole (traceless):
                xx          xy          yy          xz          yz          zz
 q only:        0.766      -0.261       0.064       0.063      -0.224      -0.830
Note: The following floating-point exceptions are signalling: IEEE_UNDERFLOW_FLAG
normal termination of xtb
  q+dip:       -3.626       2.434      -0.661      -0.584       1.243       4.288
   full:       -1.516       1.010      -0.317      -0.243       0.540       1.833


           -------------------------------------------------
          | TOTAL ENERGY              -51.636811629032 Eh   |
          | GRADIENT NORM               0.022312670962 Eh/α |
          | HOMO-LUMO GAP              11.908277955499 eV   |
           -------------------------------------------------

------------------------------------------------------------------------
 * finished run on 2026/08/28 at 19:09:48.068     
------------------------------------------------------------------------
 total:
 * wall-time:     0 d,  0 h,  0 min,  0.186 sec
 *  cpu-time:     0 d,  0 h,  0 min,  0.112 sec
 * ratio c/w:     0.603 speedup
 SCF:
 * wall-time:     0 d,  0 h,  0 min,  0.119 sec
 *  cpu-time:     0 d,  0 h,  0 min,  0.080 sec
 * ratio c/w:     0.675 speedup

