      -----------------------------------------------------------      
     |                   =====================                   |     
     |                           x T B                           |     
     |                   =====================                   |     
     |                         S. Grimme                         |     
     |          Mulliken Center for Theoretical Chemistry        |     
     |                    University of Bonn                     |     
      -----------------------------------------------------------      

   * xtb version 6.7.1 (unknown) compiled by 'root@buildkitsandbox' on 2026-08-28

   xtb is free software: you can redistribute it and/or modify it under
   the terms of the GNU Lesser General Public License as published by
   the Free Software Foundation, either version 3 of the License, or
   (at your option) any later version.
   
   xtb is distributed in the hope that it will be useful,
   but WITHOUT ANY WARRANTY; without even the implied warranty of
   MERCHANTABILITY or FITNESS FOR A PARTICULAR PURPOSE.  See the
   GNU Lesser General Public License for more details.
   
   Cite this work as:
   * C. Bannwarth, E. Caldeweyher, S. Ehlert, A. Hansen, P. Pracht,
     J. Seibert, S. Spicher, S. Grimme, WIREs Comput. Mol. Sci., 2020, 11,
     e01493. DOI: 10.1002/wcms.1493
   
   for GFN2-xTB:
   * C. Bannwarth, S. Ehlert and S. Grimme., J. Chem. Theory Comput., 2019,
     15, 1652-1671. DOI: 10.1021/acs.jctc.8b01176
   for GFN1-xTB:
   * S. Grimme, C. Bannwarth, P. Shushkov, J. Chem. Theory Comput., 2017,
     13, 1989-2009. DOI: 10.1021/acs.jctc.7b00118
   for GFN0-xTB:
   * P. Pracht, E. Caldeweyher, S. Ehlert, S. Grimme, ChemRxiv, 2019, preprint.
     DOI: 10.26434/chemrxiv.8326202.v1
   for GFN-FF:
   * S. Spicher and S. Grimme, Angew. Chem. Int. Ed., 2020, 59, 15665-15673.
     DOI: 10.1002/anie.202004239
   
   for ALPB and GBSA implicit solvation:
   * S. Ehlert, M. Stahn, S. Spicher, S. Grimme, J. Chem. Theory Comput.,
     2021, 17, 4250-4261. DOI: 10.1021/acs.jctc.1c00471
   
   for ddCOSMO and CPCM-X implicit solvation:
   * M. Stahn, S. Ehlert, S. Grimme, J. Phys. Chem. A,
     2023, XX, XXXX-XXXX. DOI: 10.1021/acs.jpca.3c04382
   
   for DFT-D4:
   * E. Caldeweyher, C. Bannwarth and S. Grimme, J. Chem. Phys., 2017,
     147, 034112. DOI: 10.1063/1.4993215
   * E. Caldeweyher, S. Ehlert, A. Hansen, H. Neugebauer, S. Spicher,
     C. Bannwarth and S. Grimme, J. Chem. Phys., 2019, 150, 154122.
     DOI: 10.1063/1.5090222
   * E. Caldeweyher, J.-M. Mewes, S. Ehlert and S. Grimme, Phys. Chem. Chem. Phys.
     2020, 22, 8499-8512. DOI: 10.1039/D0CP00502A
   
   for sTDA-xTB:
   * S. Grimme and C. Bannwarth, J. Chem. Phys., 2016, 145, 054103.
     DOI: 10.1063/1.4959605
   
   in the mass-spec context:
   * V. Asgeirsson, C. Bauer and S. Grimme, Chem. Sci., 2017, 8, 4879.
     DOI: 10.1039/c7sc00601b
   * J. Koopman and S. Grimme, ACS Omega 2019, 4, 12, 15120-15133.
     DOI: 10.1021/acsomega.9b02011
   
   for metadynamics refer to:
   * S. Grimme, J. Chem. Theory Comput., 2019, 155, 2847-2862
     DOI: 10.1021/acs.jctc.9b00143
   
   for SPH calculations refer to:
   * S. Spicher and S. Grimme, J. Chem. Theory Comput., 2021, 17, 1701-1714
     DOI: 10.1021/acs.jctc.0c01306
   
   for ONIOM refer to:
   * C. Plett, A. Katbashev, S. Ehlert, S. Grimme, M. Bursch,
     Phys. Chem. Chem. Phys., 2023, 25, 17860-17868. DOI: 10.1039/D3CP02178E
   
   for DIPRO refer to:
   * J. Kohn, N. Gildemeister, S. Grimme, D. Fazzi, A. Hansen,
     J. Chem. Phys. 159, 144106 (2023). DOI: 10.1063/5.0167484
   
   for PTB refer to:
   * S. Grimme, M. Mueller, A. Hansen, J. Chem. Phys., 2023, 158, 124111.
     DOI: 10.1063/5.0137838
   
   with help from (in alphabetical order)
   P. Atkinson, C. Bannwarth, F. Bohle, G. Brandenburg, E. Caldeweyher,
   M. Checinski, S. Dohm, S. Ehlert, S. Ehrlich, M. Friede, T. Froitzheim,
   I. Gerasimov, C. Hölzer, A. Katbashev, J. Kohn, J. Koopman, C. Lavigne,
   S. Lehtola, F. März, M. Müller, F. Musil, H. Neugebauer, J. Pisarek,
   C. Plett, P. Pracht, F. Pultar, J. Seibert, P. Shushkov, S. Spicher,
   M. Stahn, M. Steiner, T. Strunk, J. Stückrath, T. Rose, and J. Unsleber
   
 * started run on 2026/08/28 at 19:09:35.692     
   ID    Z sym.   atoms
    1    6 C      1, 2
    2    1 H      3-8

           -------------------------------------------------
          |                Calculation Setup                |
           -------------------------------------------------

          program call               : xtb in.xyz --gfn 2 --grad --norestart
          hostname                   : 756d39058c4f
          coordinate file            : in.xyz
          random seed                :             390609203


           -------------------------------------------------
          |                 G F N 2 - x T B                 |
           -------------------------------------------------

        Reference                      10.1021/acs.jctc.8b01176
      * Hamiltonian:
        H0-scaling (s, p, d)           1.850000    2.230000    2.230000
        zeta-weighting                 0.500000
      * Dispersion:
        s8                             2.700000
        a1                             0.520000
        a2                             5.000000
        s9                             5.000000
      * Repulsion:
        kExp                           1.500000    1.000000
        rExp                           1.000000
      * Coulomb:
        alpha                          2.000000
        third order                    shell-resolved
        anisotropic                    true
        a3                             3.000000
        a5                             4.000000
        cn-shift                       1.200000
        cn-exp                         4.000000
        max-rad                        5.000000


          ...................................................
          :                      SETUP                      :
          :.................................................:
          :  # basis functions                  14          :
          :  # atomic orbitals                  14          :
          :  # shells                           10          :
          :  # electrons                        14          :
          :  max. iterations                   250          :
          :  Hamiltonian                  GFN2-xTB          :
          :  restarted?                      false          :
          :  GBSA solvation                  false          :
          :  PC potential                    false          :
          :  electronic temp.          300.0000000     K    :
          :  accuracy                    1.0000000          :
          :  -> integral cutoff          0.2500000E+02      :
          :  -> integral neglect         0.1000000E-07      :
          :  -> SCF convergence          0.1000000E-05 Eh   :
          :  -> wf. convergence          0.1000000E-03 e    :
          :  Broyden damping             0.4000000          :
          :  net charge                          0          :
          :  unpaired electrons                  0          :
          ...................................................

 iter      E             dE          RMSdq      gap      omega  full diag
   1     -7.4243710 -0.742437E+01  0.273E+00   16.17       0.0  T
   2     -7.4494398 -0.250688E-01  0.138E+00   15.75       1.0  T
   3     -7.4496489 -0.209141E-03  0.736E-01   15.73       1.0  T
   4     -7.4497184 -0.695022E-04  0.898E-02   15.72       1.0  T
   5     -7.4497185 -0.198780E-07  0.301E-03   15.71      11.7  T
   6     -7.4497185 -0.416364E-07  0.109E-03   15.71      32.4  T
   7     -7.4497185 -0.526823E-10  0.121E-04   15.71     292.5  T
   8     -7.4497185 -0.689404E-10  0.364E-06   15.71    9713.1  T

   *** convergence criteria satisfied after 8 iterations ***

         #    Occupation            Energy/Eh            Energy/eV
      -------------------------------------------------------------
         1        2.0000           -0.6051004             -16.4656
         2        2.0000           -0.5622186             -15.2987
         3        2.0000           -0.4957906             -13.4911
         4        2.0000           -0.4957903             -13.4911
         5        2.0000           -0.4613676             -12.5545
         6        2.0000           -0.4346103             -11.8263
         7        2.0000           -0.4346100             -11.8263 (HOMO)
         8                          0.1428527               3.8872 (LUMO)
         9                          0.1572824               4.2799
        10                          0.1572869               4.2800
        11                          0.1639624               4.4616
        12                          0.1944230               5.2905
       ...                                ...                  ...
        14                          0.2731885               7.4338
      -------------------------------------------------------------
                  HL-Gap            0.5774626 Eh           15.7136 eV
             Fermi-level           -0.1458786 Eh           -3.9696 eV

 SCC (total)                   0 d,  0 h,  0 min,  0.006 sec
 SCC setup                      ...        0 min,  0.000 sec (  0.733%)
 Dispersion                     ...        0 min,  0.000 sec (  0.288%)
 classical contributions        ...        0 min,  0.000 sec (  0.050%)
 integral evaluation            ...        0 min,  0.000 sec (  2.261%)
 iterations                     ...        0 min,  0.002 sec ( 32.131%)
 molecular gradient             ...        0 min,  0.000 sec (  5.071%)
 printout                       ...        0 min,  0.004 sec ( 59.368%)

         :::::::::::::::::::::::::::::::::::::::::::::::::::::
         ::                     SUMMARY                     ::
         :::::::::::::::::::::::::::::::::::::::::::::::::::::
         :: total energy              -7.336182673990 Eh    ::
         :: gradient norm              0.014334367152 Eh/a0 ::
         :: HOMO-LUMO gap             15.713558353967 eV    ::
         ::.................................................::
         :: SCC energy                -7.449718340319 Eh    ::
         :: -> isotropic ES            0.001953242486 Eh    ::
         :: -> anisotropic ES          0.003193835822 Eh    ::
         :: -> anisotropic XC          0.005551737456 Eh    ::
         :: -> dispersion             -0.002037502275 Eh    ::
         :: repulsion energy           0.113535666329 Eh    ::
         :: add. restraining           0.000000000000 Eh    ::
         :: total charge              -0.000000000000 e     ::
         :::::::::::::::::::::::::::::::::::::::::::::::::::::

           -------------------------------------------------
          |                Property Printout                |
           -------------------------------------------------

    * Orbital Energies and Occupations

         #    Occupation            Energy/Eh            Energy/eV
      -------------------------------------------------------------
         1        2.0000           -0.6051004             -16.4656
         2        2.0000           -0.5622186             -15.2987
         3        2.0000           -0.4957906             -13.4911
         4        2.0000           -0.4957903             -13.4911
         5        2.0000           -0.4613676             -12.5545
         6        2.0000           -0.4346103             -11.8263
         7        2.0000           -0.4346100             -11.8263 (HOMO)
         8                          0.1428527               3.8872 (LUMO)
         9                          0.1572824               4.2799
        10                          0.1572869               4.2800
        11                          0.1639624               4.4616
        12                          0.1944230               5.2905
        13                          0.2731829               7.4337
        14                          0.2731885               7.4338
      -------------------------------------------------------------
                  HL-Gap            0.5774626 Eh           15.7136 eV
             Fermi-level           -0.1458786 Eh           -3.9696 eV
normal termination of xtb

     #   Z          covCN         q      C6AA      α(0)
     1   6          3.748    -0.095    22.374     6.746
     2   6          3.748    -0.095    22.374     6.746
     3   1          0.924     0.032     2.565     2.504
     4   1          0.924     0.032     2.565     2.504
     5   1          0.924     0.032     2.565     2.504
     6   1          0.924     0.032     2.565     2.504
     7   1          0.924     0.032     2.565     2.504
     8   1          0.924     0.032     2.565     2.504

 Mol. C6AA /au·bohr⁶  :        362.481377
 Mol. C8AA /au·bohr⁸  :       7082.405380
 Mol. α(0) /au        :         28.519105


Wiberg/Mayer (AO) data.
largest (>0.10) Wiberg bond orders for each atom

 ---------------------------------------------------------------------------
     #   Z sym  total        # sym  WBO       # sym  WBO       # sym  WBO
 ---------------------------------------------------------------------------
     1   6      3.998 --     2      1.033     4      0.989     5      0.989
                             3      0.989
     2   6      3.998 --     1      1.033     7      0.989     6      0.989
                             8      0.989
     3   1      0.999 --     1      0.989
     4   1      0.999 --     1      0.989
     5   1      0.999 --     1      0.989
     6   1      0.999 --     2      0.989
     7   1      0.999 --     2      0.989
     8   1      0.999 --     2      0.989
 ---------------------------------------------------------------------------

Topologies differ in total number of bonds
Writing topology from bond orders to xtbtopo.mol

molecular dipole:
                 x           y           z       tot (Debye)
 q only:        0.000      -0.000      -0.000
   full:        0.000      -0.000       0.000       0.000
molecular quadrupole (traceless):
                xx          xy          yy          xz          yz          zz
 q only:        0.138      -0.000      -0.069      -0.000      -0.000      -0.069
  q+dip:       -0.703      -0.000       0.351       0.000       0.000       0.351
   full:       -0.319      -0.000       0.160      -0.000       0.000       0.160


           -------------------------------------------------
          | TOTAL ENERGY               -7.336182673990 Eh   |
          | GRADIENT NORM               0.014334367152 Eh/α |
          | HOMO-LUMO GAP              15.713558353967 eV   |
           -------------------------------------------------

------------------------------------------------------------------------
 * finished run on 2026/08/28 at 19:09:35.722     
------------------------------------------------------------------------
 total:
 * wall-time:     0 d,  0 h,  0 min,  0.029 sec
 *  cpu-time:     0 d,  0 h,  0 min,  0.011 sec
 * ratio c/w:     0.395 speedup
 SCF:
 * wall-time:     0 d,  0 h,  0 min,  0.006 sec
 *  cpu-time:     0 d,  0 h,  0 min,  0.003 sec
 * ratio c/w:     0.422 speedup

