      -----------------------------------------------------------      
     |                   =====================                   |     
     |                           x T B                           |     
     |                   =====================                   |     
     |                         S. Grimme                         |     
     |          Mulliken Center for Theoretical Chemistry        |     
     |                    University of Bonn                     |     
      -----------------------------------------------------------      

   * xtb version 6.7.1 (unknown) compiled by 'root@buildkitsandbox' on 2026-08-28

   xtb is free software: you can redistribute it and/or modify it under
   the terms of the GNU Lesser General Public License as published by
   the Free Software Foundation, either version 3 of the License, or
   (at your option) any later version.
   
   xtb is distributed in the hope that it will be useful,
   but WITHOUT ANY WARRANTY; without even the implied warranty of
   MERCHANTABILITY or FITNESS FOR A PARTICULAR PURPOSE.  See the
   GNU Lesser General Public License for more details.
   
   Cite this work as:
   * C. Bannwarth, E. Caldeweyher, S. Ehlert, A. Hansen, P. Pracht,
     J. Seibert, S. Spicher, S. Grimme, WIREs Comput. Mol. Sci., 2020, 11,
     e01493. DOI: 10.1002/wcms.1493
   
   for GFN2-xTB:
   * C. Bannwarth, S. Ehlert and S. Grimme., J. Chem. Theory Comput., 2019,
     15, 1652-1671. DOI: 10.1021/acs.jctc.8b01176
   for GFN1-xTB:
   * S. Grimme, C. Bannwarth, P. Shushkov, J. Chem. Theory Comput., 2017,
     13, 1989-2009. DOI: 10.1021/acs.jctc.7b00118
   for GFN0-xTB:
   * P. Pracht, E. Caldeweyher, S. Ehlert, S. Grimme, ChemRxiv, 2019, preprint.
     DOI: 10.26434/chemrxiv.8326202.v1
   for GFN-FF:
   * S. Spicher and S. Grimme, Angew. Chem. Int. Ed., 2020, 59, 15665-15673.
     DOI: 10.1002/anie.202004239
   
   for ALPB and GBSA implicit solvation:
   * S. Ehlert, M. Stahn, S. Spicher, S. Grimme, J. Chem. Theory Comput.,
     2021, 17, 4250-4261. DOI: 10.1021/acs.jctc.1c00471
   
   for ddCOSMO and CPCM-X implicit solvation:
   * M. Stahn, S. Ehlert, S. Grimme, J. Phys. Chem. A,
     2023, XX, XXXX-XXXX. DOI: 10.1021/acs.jpca.3c04382
   
   for DFT-D4:
   * E. Caldeweyher, C. Bannwarth and S. Grimme, J. Chem. Phys., 2017,
     147, 034112. DOI: 10.1063/1.4993215
   * E. Caldeweyher, S. Ehlert, A. Hansen, H. Neugebauer, S. Spicher,
     C. Bannwarth and S. Grimme, J. Chem. Phys., 2019, 150, 154122.
     DOI: 10.1063/1.5090222
   * E. Caldeweyher, J.-M. Mewes, S. Ehlert and S. Grimme, Phys. Chem. Chem. Phys.
     2020, 22, 8499-8512. DOI: 10.1039/D0CP00502A
   
   for sTDA-xTB:
   * S. Grimme and C. Bannwarth, J. Chem. Phys., 2016, 145, 054103.
     DOI: 10.1063/1.4959605
   
   in the mass-spec context:
   * V. Asgeirsson, C. Bauer and S. Grimme, Chem. Sci., 2017, 8, 4879.
     DOI: 10.1039/c7sc00601b
   * J. Koopman and S. Grimme, ACS Omega 2019, 4, 12, 15120-15133.
     DOI: 10.1021/acsomega.9b02011
   
   for metadynamics refer to:
   * S. Grimme, J. Chem. Theory Comput., 2019, 155, 2847-2862
     DOI: 10.1021/acs.jctc.9b00143
   
   for SPH calculations refer to:
   * S. Spicher and S. Grimme, J. Chem. Theory Comput., 2021, 17, 1701-1714
     DOI: 10.1021/acs.jctc.0c01306
   
   for ONIOM refer to:
   * C. Plett, A. Katbashev, S. Ehlert, S. Grimme, M. Bursch,
     Phys. Chem. Chem. Phys., 2023, 25, 17860-17868. DOI: 10.1039/D3CP02178E
   
   for DIPRO refer to:
   * J. Kohn, N. Gildemeister, S. Grimme, D. Fazzi, A. Hansen,
     J. Chem. Phys. 159, 144106 (2023). DOI: 10.1063/5.0167484
   
   for PTB refer to:
   * S. Grimme, M. Mueller, A. Hansen, J. Chem. Phys., 2023, 158, 124111.
     DOI: 10.1063/5.0137838
   
   with help from (in alphabetical order)
   P. Atkinson, C. Bannwarth, F. Bohle, G. Brandenburg, E. Caldeweyher,
   M. Checinski, S. Dohm, S. Ehlert, S. Ehrlich, M. Friede, T. Froitzheim,
   I. Gerasimov, C. Hölzer, A. Katbashev, J. Kohn, J. Koopman, C. Lavigne,
   S. Lehtola, F. März, M. Müller, F. Musil, H. Neugebauer, J. Pisarek,
   C. Plett, P. Pracht, F. Pultar, J. Seibert, P. Shushkov, S. Spicher,
   M. Stahn, M. Steiner, T. Strunk, J. Stückrath, T. Rose, and J. Unsleber
   
 * started run on 2026/08/28 at 19:10:01.915     
   ID    Z sym.   atoms
    1    6 C      1-4
    2    1 H      5-14

           -------------------------------------------------
          |                Calculation Setup                |
           -------------------------------------------------

          program call               : xtb in.xyz --gfn 2 --opt --norestart
          hostname                   : 756d39058c4f
          coordinate file            : in.xyz
          random seed                :            1806159352


           -------------------------------------------------
          |                 G F N 2 - x T B                 |
           -------------------------------------------------

        Reference                      10.1021/acs.jctc.8b01176
      * Hamiltonian:
        H0-scaling (s, p, d)           1.850000    2.230000    2.230000
        zeta-weighting                 0.500000
      * Dispersion:
        s8                             2.700000
        a1                             0.520000
        a2                             5.000000
        s9                             5.000000
      * Repulsion:
        kExp                           1.500000    1.000000
        rExp                           1.000000
      * Coulomb:
        alpha                          2.000000
        third order                    shell-resolved
        anisotropic                    true
        a3                             3.000000
        a5                             4.000000
        cn-shift                       1.200000
        cn-exp                         4.000000
        max-rad                        5.000000


          ...................................................
          :                      SETUP                      :
          :.................................................:
          :  # basis functions                  26          :
          :  # atomic orbitals                  26          :
          :  # shells                           18          :
          :  # electrons                        26          :
          :  max. iterations                   250          :
          :  Hamiltonian                  GFN2-xTB          :
          :  restarted?                      false          :
          :  GBSA solvation                  false          :
          :  PC potential                    false          :
          :  electronic temp.          300.0000000     K    :
          :  accuracy                    1.0000000          :
          :  -> integral cutoff          0.2500000E+02      :
          :  -> integral neglect         0.1000000E-07      :
          :  -> SCF convergence          0.1000000E-05 Eh   :
          :  -> wf. convergence          0.1000000E-03 e    :
          :  Broyden damping             0.4000000          :
          :  net charge                          0          :
          :  unpaired electrons                  0          :
          ...................................................

 iter      E             dE          RMSdq      gap      omega  full diag
   1    -13.8277838 -0.138278E+02  0.263E+00   14.20       0.0  T
   2    -13.8687411 -0.409572E-01  0.140E+00   13.93       1.0  T
   3    -13.8691771 -0.436072E-03  0.739E-01   13.91       1.0  T
   4    -13.8692921 -0.114961E-03  0.928E-02   13.92       1.0  T
   5    -13.8692982 -0.614834E-05  0.519E-02   13.92       1.0  T
   6    -13.8692985 -0.290941E-06  0.184E-03   13.92      14.6  T
   7    -13.8692985 -0.423639E-08  0.746E-04   13.92      35.8  T
   8    -13.8692985 -0.476506E-09  0.113E-04   13.92     235.7  T

   *** convergence criteria satisfied after 8 iterations ***

         #    Occupation            Energy/Eh            Energy/eV
      -------------------------------------------------------------
         1        2.0000           -0.6178634             -16.8129
       ...           ...                  ...                  ...
         7        2.0000           -0.4876506             -13.2696
         8        2.0000           -0.4788055             -13.0290
         9        2.0000           -0.4542831             -12.3617
        10        2.0000           -0.4388936             -11.9429
        11        2.0000           -0.4370406             -11.8925
        12        2.0000           -0.4254567             -11.5773
        13        2.0000           -0.4194808             -11.4147 (HOMO)
        14                          0.0921138               2.5065 (LUMO)
        15                          0.1196635               3.2562
        16                          0.1217985               3.3143
        17                          0.1500099               4.0820
        18                          0.1534211               4.1748
       ...                                ...                  ...
        26                          0.3052334               8.3058
      -------------------------------------------------------------
                  HL-Gap            0.5115946 Eh           13.9212 eV
             Fermi-level           -0.1636835 Eh           -4.4541 eV

 SCC (total)                   0 d,  0 h,  0 min,  0.005 sec
 SCC setup                      ...        0 min,  0.000 sec (  0.924%)
 Dispersion                     ...        0 min,  0.000 sec (  0.890%)
 classical contributions        ...        0 min,  0.000 sec (  0.129%)
 integral evaluation            ...        0 min,  0.000 sec (  7.741%)
 iterations                     ...        0 min,  0.002 sec ( 34.469%)
 molecular gradient             ...        0 min,  0.002 sec ( 42.389%)
 printout                       ...        0 min,  0.001 sec ( 12.269%)

         :::::::::::::::::::::::::::::::::::::::::::::::::::::
         ::                     SUMMARY                     ::
         :::::::::::::::::::::::::::::::::::::::::::::::::::::
         :: total energy             -13.664813746305 Eh    ::
         :: gradient norm              0.014960596990 Eh/a0 ::
         :: HOMO-LUMO gap             13.921197725544 eV    ::
         ::.................................................::
         :: SCC energy               -13.869294491871 Eh    ::
         :: -> isotropic ES            0.002881887241 Eh    ::
         :: -> anisotropic ES          0.005112316939 Eh    ::
         :: -> anisotropic XC          0.009318981954 Eh    ::
         :: -> dispersion             -0.006053700345 Eh    ::
         :: repulsion energy           0.204480745566 Eh    ::
         :: add. restraining           0.000000000000 Eh    ::
         :: total charge               0.000000000000 e     ::
         :::::::::::::::::::::::::::::::::::::::::::::::::::::

      ----------------------------------------------------------- 
     |                   =====================                   |
     |                        A N C O P T                        |
     |                   =====================                   |
     |               Approximate Normal Coordinate               |
     |                Rational Function Optimizer                |
      ----------------------------------------------------------- 

          ...................................................
          :                      SETUP                      :
          :.................................................:
          :   optimization level            normal          :
          :   max. optcycles                   200          :
          :   ANC micro-cycles                  20          :
          :   degrees of freedom                36          :
          :.................................................:
          :   RF solver                   davidson          :
          :   write xtbopt.log                true          :
          :   linear?                        false          :
          :   energy convergence         0.5000000E-05 Eh   :
          :   grad. convergence          0.1000000E-02 Eh/α :
          :   maximum RF displ.          1.0000000          :
          :   Hlow (freq-cutoff)         0.1000000E-01      :
          :   Hmax (freq-cutoff)         5.0000000          :
          :   S6 in model hess.         20.0000000          :
          ...................................................

generating ANC from exact Hessian ...
Using Lindh-Hessian (1995)
 Shifting diagonal of input Hessian by    5.8418299961054687E-003
 Lowest  eigenvalues of input Hessian
    0.000000    0.000000    0.000000    0.000000    0.000000    0.000000
    0.010000    0.013435    0.013616    0.018016    0.022512    0.045181
    0.047367    0.056711    0.059142    0.059503    0.061493    0.069746
 Highest eigenvalues
    1.104633    1.129268    1.179944    1.195399    1.221543    1.283341


........................................................................
.............................. CYCLE    1 ..............................
........................................................................

 iter      E             dE          RMSdq      gap      omega  full diag
   1    -13.8692985 -0.138693E+02  0.208E-05   13.92       0.0  T
   2    -13.8692985 -0.269651E-11  0.780E-06   13.92    3427.1  T
   3    -13.8692985 -0.124345E-13  0.427E-06   13.92    6264.2  T
     SCC iter.                  ...        0 min,  0.001 sec
     gradient                   ...        0 min,  0.005 sec
 * total energy  :   -13.6648137 Eh     change       -0.7808865E-11 Eh
   gradient norm :     0.0149601 Eh/α   predicted     0.0000000E+00 (-100.00%)
   displ. norm   :     0.0650878 α      lambda       -0.5708251E-03
   maximum displ.:     0.0434187 α      in ANC's #8, #14, #24, ...

........................................................................
.............................. CYCLE    2 ..............................
........................................................................

 iter      E             dE          RMSdq      gap      omega  full diag
   1    -13.8747074 -0.138747E+02  0.105E-01   13.75       0.0  T
   2    -13.8747112 -0.373737E-05  0.615E-02   13.75       1.0  T
   3    -13.8747114 -0.191093E-06  0.568E-03   13.75       4.7  T
   4    -13.8747114 -0.222999E-07  0.176E-03   13.75      15.1  T
   5    -13.8747114 -0.825491E-09  0.844E-04   13.75      31.7  T
   6    -13.8747114 -0.265800E-09  0.668E-05   13.75     399.9  T
     SCC iter.                  ...        0 min,  0.001 sec
     gradient                   ...        0 min,  0.001 sec
 * total energy  :   -13.6651025 Eh     change       -0.2887061E-03 Eh
   gradient norm :     0.0049795 Eh/α   predicted    -0.2866226E-03 (  -0.72%)
   displ. norm   :     0.0233674 α      lambda       -0.4304361E-04
   maximum displ.:     0.0212454 α      in ANC's #5, #8, #11, ...

........................................................................
.............................. CYCLE    3 ..............................
........................................................................

 iter      E             dE          RMSdq      gap      omega  full diag
   1    -13.8760686 -0.138761E+02  0.227E-02   13.81       0.0  T
   2    -13.8760689 -0.357375E-06  0.126E-02   13.81       2.1  T
   3    -13.8760690 -0.414149E-08  0.264E-03   13.81      10.1  T
   4    -13.8760690 -0.694728E-09  0.256E-04   13.81     104.3  T
   5    -13.8760690 -0.178400E-10  0.128E-04   13.81     208.3  T
     SCC iter.                  ...        0 min,  0.001 sec
     gradient                   ...        0 min,  0.004 sec
 * total energy  :   -13.6651264 Eh     change       -0.2391247E-04 Eh
   gradient norm :     0.0011618 Eh/α   predicted    -0.2153228E-04 (  -9.95%)
   displ. norm   :     0.0064828 α      lambda       -0.2338780E-05
   maximum displ.:     0.0040146 α      in ANC's #5, #8, #11, ...

........................................................................
.............................. CYCLE    4 ..............................
........................................................................

 iter      E             dE          RMSdq      gap      omega  full diag
   1    -13.8761170 -0.138761E+02  0.920E-03   13.80       0.0  T
   2    -13.8761170 -0.286371E-07  0.533E-03   13.80       5.0  T
   3    -13.8761170 -0.609399E-09  0.647E-04   13.80      41.3  T
   4    -13.8761170 -0.977700E-09  0.140E-04   13.80     190.7  T
     SCC iter.                  ...        0 min,  0.002 sec
     gradient                   ...        0 min,  0.004 sec
 * total energy  :   -13.6651276 Eh     change       -0.1198873E-05 Eh
   gradient norm :     0.0002946 Eh/α   predicted    -0.1171254E-05 (  -2.30%)
   displ. norm   :     0.0028282 α      lambda       -0.2710577E-06
   maximum displ.:     0.0019206 α      in ANC's #5, #8, #11, ...

   *** GEOMETRY OPTIMIZATION CONVERGED AFTER 4 ITERATIONS ***

------------------------------------------------------------------------
 total energy gain   :        -0.0003138 Eh       -0.1969 kcal/mol
 total RMSD          :         0.0156218 a0        0.0083 Å
 total power (kW/mol):        -0.2059819 (step)  -26.5045 (real)
------------------------------------------------------------------------

 ANCopt (total)                0 d,  0 h,  0 min,  0.031 sec
 optimizer setup                ...        0 min,  0.000 sec (  0.699%)
 model hessian                  ...        0 min,  0.005 sec ( 17.060%)
 ANC generation                 ...        0 min,  0.001 sec (  1.878%)
 coordinate transformation      ...        0 min,  0.000 sec (  0.099%)
 single point calculation       ...        0 min,  0.024 sec ( 76.791%)
 optimization log               ...        0 min,  0.000 sec (  0.762%)
 hessian update                 ...        0 min,  0.000 sec (  0.066%)
 rational function              ...        0 min,  0.000 sec (  1.299%)

================
 final structure:
================
14
 xtb: 6.7.1 (unknown)
C            0.90118517939242       -0.05889386137160       -0.03959685157899
C            2.42472033721138       -0.04331280200485       -0.05283857489742
C            2.97579729906684        1.05808926386701       -0.95558180307674
C            4.49933155498202        1.07286465340769       -0.96980713597336
H            0.53095170687276       -0.84969449102056        0.60866478477287
H            0.51319930991794       -0.22659275731162       -1.04210751540755
H            0.51360032984169        0.89129435796216        0.32179548974016
H            2.79446362732591       -1.01108294520481       -0.39970508202709
H            2.79490902584506        0.10647283058451        0.96408269030799
H            2.60677262319021        2.02594728712744       -0.60819805463413
H            2.60489056389797        0.90879368867976       -1.97231425493327
H            4.88808024798577        1.23984734998299        0.03252808047041
H            4.86956481568182        1.86378166946255       -1.61792661368988
H            4.88615337878820        0.12264575583933       -1.33193515907301

 Bond Distances (Angstroems)
 ---------------------------
C1-C2=1.5237         C1-H5=1.0875         C1-H6=1.0880         C1-H7=1.0880         C2-C1=1.5237         C2-C3=1.5270         
C2-H8=1.0925         C2-H9=1.0925         C3-C2=1.5270         C3-C4=1.5237         C3-H10=1.0925        C3-H11=1.0925        
C4-C3=1.5237         C4-H12=1.0880        C4-H13=1.0875        C4-H14=1.0880        H5-C1=1.0875         H6-C1=1.0880         
H7-C1=1.0880         H8-C2=1.0925         H9-C2=1.0925         H10-C3=1.0925        H11-C3=1.0925        H12-C4=1.0880        
H13-C4=1.0875        H14-C4=1.0880        
 C  H  Rav=1.0897 sigma=0.0023  Rmin=1.0875  Rmax=1.0925    10
 C  C  Rav=1.5248 sigma=0.0016  Rmin=1.5237  Rmax=1.5270     3

 selected bond angles (degree)
 --------------------
H5-C1-C2=110.67                H6-C1-C2=110.50                H6-C1-H5=108.41                H7-C1-C2=110.50                
H7-C1-H5=108.41                H7-C1-H6=108.28                C3-C2-C1=111.92                H8-C2-C1=109.40                
H8-C2-C3=109.21                H9-C2-C1=109.40                H9-C2-C3=109.21                H9-C2-H8=107.60                
C4-C3-C2=111.92                H10-C3-C2=109.21               H10-C3-C4=109.40               H11-C3-C2=109.21               
H11-C3-C4=109.40               H11-C3-H10=107.60              H12-C4-C3=110.50               H13-C4-C3=110.67               
H13-C4-H12=108.41              H14-C4-C3=110.50               H14-C4-H12=108.28              H14-C4-H13=108.41              

 selected dihedral angles (degree)
 ---------------------------------
C3-C2-C1-H5=180.00            C3-C2-C1-H6= 59.91            C3-C2-C1-H7=300.10            H8-C2-C1-H5= 58.82            
H8-C2-C1-H6=298.73            H8-C2-C1-H7=178.91            H9-C2-C1-H5=301.19            H9-C2-C1-H6=181.10            
H9-C2-C1-H7= 61.28            C4-C3-C2-C1=180.05            C4-C3-C2-H8=301.34            C4-C3-C2-H9= 58.76            
H10-C3-C2-C1= 58.76           H10-C3-C2-H8=180.05           H10-C3-C2-H9=297.47           H11-C3-C2-C1=301.34           
H11-C3-C2-H8= 62.63           H11-C3-C2-H9=180.05           H12-C4-C3-C2=300.10           H12-C4-C3-H10= 61.28          
H12-C4-C3-H11=178.91          H13-C4-C3-C2=180.00           H13-C4-C3-H10=301.19          H13-C4-C3-H11= 58.82          
H14-C4-C3-C2= 59.91           H14-C4-C3-H10=181.10          H14-C4-C3-H11=298.73          
           -------------------------------------------------
          |                Final Singlepoint                |
           -------------------------------------------------

          ...................................................
          :                      SETUP                      :
          :.................................................:
          :  # basis functions                  26          :
          :  # atomic orbitals                  26          :
          :  # shells                           18          :
          :  # electrons                        26          :
          :  max. iterations                   250          :
          :  Hamiltonian                  GFN2-xTB          :
          :  restarted?                      false          :
          :  GBSA solvation                  false          :
          :  PC potential                    false          :
          :  electronic temp.          300.0000000     K    :
          :  accuracy                    1.0000000          :
          :  -> integral cutoff          0.2500000E+02      :
          :  -> integral neglect         0.1000000E-07      :
          :  -> SCF convergence          0.1000000E-05 Eh   :
          :  -> wf. convergence          0.1000000E-03 e    :
          :  Broyden damping             0.4000000          :
          :  net charge                          0          :
          :  unpaired electrons                  0          :
          ...................................................

 iter      E             dE          RMSdq      gap      omega  full diag
   1    -13.8761170 -0.138761E+02  0.661E-05   13.80       0.0  T
   2    -13.8761170 -0.392575E-12  0.384E-05   13.80     696.2  T
   3    -13.8761170 -0.133227E-12  0.189E-06   13.80   14163.1  T

   *** convergence criteria satisfied after 3 iterations ***

         #    Occupation            Energy/Eh            Energy/eV
      -------------------------------------------------------------
         1        2.0000           -0.6179699             -16.8158
       ...           ...                  ...                  ...
         7        2.0000           -0.4878713             -13.2757
         8        2.0000           -0.4789968             -13.0342
         9        2.0000           -0.4546472             -12.3716
        10        2.0000           -0.4394993             -11.9594
        11        2.0000           -0.4367186             -11.8837
        12        2.0000           -0.4258149             -11.5870
        13        2.0000           -0.4195777             -11.4173 (HOMO)
        14                          0.0877149               2.3868 (LUMO)
        15                          0.1266618               3.4466
        16                          0.1279017               3.4804
        17                          0.1526585               4.1540
        18                          0.1629312               4.4336
       ...                                ...                  ...
        26                          0.3114850               8.4759
      -------------------------------------------------------------
                  HL-Gap            0.5072925 Eh           13.8041 eV
             Fermi-level           -0.1659314 Eh           -4.5152 eV

 SCC (total)                   0 d,  0 h,  0 min,  0.010 sec
 SCC setup                      ...        0 min,  0.000 sec (  0.684%)
 Dispersion                     ...        0 min,  0.000 sec (  0.408%)
 classical contributions        ...        0 min,  0.000 sec (  0.160%)
 integral evaluation            ...        0 min,  0.001 sec (  8.644%)
 iterations                     ...        0 min,  0.003 sec ( 25.969%)
 molecular gradient             ...        0 min,  0.006 sec ( 62.921%)
 printout                       ...        0 min,  0.000 sec (  1.037%)

         :::::::::::::::::::::::::::::::::::::::::::::::::::::
         ::                     SUMMARY                     ::
         :::::::::::::::::::::::::::::::::::::::::::::::::::::
         :: total energy             -13.665127563728 Eh    ::
         :: gradient norm              0.000294476483 Eh/a0 ::
         :: HOMO-LUMO gap             13.804132735559 eV    ::
         ::.................................................::
         :: SCC energy               -13.876113125113 Eh    ::
         :: -> isotropic ES            0.003000869264 Eh    ::
         :: -> anisotropic ES          0.004906876148 Eh    ::
         :: -> anisotropic XC          0.009060005035 Eh    ::
         :: -> dispersion             -0.006049261483 Eh    ::
         :: repulsion energy           0.210985561385 Eh    ::
         :: add. restraining           0.000000000000 Eh    ::
         :: total charge               0.000000000000 e     ::
         :::::::::::::::::::::::::::::::::::::::::::::::::::::

           -------------------------------------------------
          |                Property Printout                |
           -------------------------------------------------

    * Orbital Energies and Occupations

         #    Occupation            Energy/Eh            Energy/eV
      -------------------------------------------------------------
         1        2.0000           -0.6179699             -16.8158
         2        2.0000           -0.5989824             -16.2991
         3        2.0000           -0.5679028             -15.4534
         4        2.0000           -0.5524048             -15.0317
         5        2.0000           -0.5138474             -13.9825
         6        2.0000           -0.4918631             -13.3843
         7        2.0000           -0.4878713             -13.2757
         8        2.0000           -0.4789968             -13.0342
         9        2.0000           -0.4546472             -12.3716
        10        2.0000           -0.4394993             -11.9594
        11        2.0000           -0.4367186             -11.8837
        12        2.0000           -0.4258149             -11.5870
        13        2.0000           -0.4195777             -11.4173 (HOMO)
        14                          0.0877149               2.3868 (LUMO)
        15                          0.1266618               3.4466
        16                          0.1279017               3.4804
        17                          0.1526585               4.1540
        18                          0.1629312               4.4336
        19                          0.1838327               5.0023
        20                          0.1937018               5.2709
        21                          0.1973270               5.3695
        22                          0.2245801               6.1111
        23                          0.2550108               6.9392
        24                          0.2647072               7.2030
       ...                                ...                  ...
        26                          0.3114850               8.4759
      -------------------------------------------------------------
                  HL-Gap            0.5072925 Eh           13.8041 eV
             Fermi-level           -0.1659314 Eh           -4.5152 eV

     #   Z          covCN         q      C6AA      α(0)
     1   6          3.752    -0.102    22.511     6.766
     2   6          3.801    -0.053    21.535     6.607
     3   6          3.801    -0.053    21.535     6.607
     4   6          3.752    -0.102    22.511     6.766
     5   1          0.925     0.032     2.553     2.499
     6   1          0.925     0.033     2.550     2.497
     7   1          0.925     0.033     2.550     2.497
     8   1          0.924     0.029     2.600     2.522
     9   1          0.924     0.029     2.600     2.522
    10   1          0.924     0.029     2.600     2.522
    11   1          0.924     0.029     2.600     2.522
    12   1          0.925     0.033     2.550     2.497
    13   1          0.925     0.032     2.553     2.499
    14   1          0.925     0.033     2.550     2.497

 Mol. C6AA /au·bohr⁶  :       1207.475203
 Mol. C8AA /au·bohr⁸  :      24480.327225
 Mol. α(0) /au        :         51.818830


Wiberg/Mayer (AO) data.
largest (>0.10) Wiberg bond orders for each atom

 ---------------------------------------------------------------------------
     #   Z sym  total        # sym  WBO       # sym  WBO       # sym  WBO
 ---------------------------------------------------------------------------
     1   6      3.997 --     2      1.019     7      0.988     6      0.988
                             5      0.988
     2   6      3.998 --     1      1.019     3      1.009     9      0.979
                             8      0.979
     3   6      3.998 --     4      1.019     2      1.009    10      0.979
                            11      0.979
     4   6      3.997 --     3      1.019    12      0.988    14      0.988
                            13      0.988
     5   1      0.999 --     1      0.988
     6   1      0.999 --     1      0.988
     7   1      0.999 --     1      0.988
     8   1      0.999 --     2      0.979
     9   1      0.999 --     2      0.979
    10   1      0.999 --     3      0.979
    11   1      0.999 --     3      0.979
    12   1      0.999 --     4      0.988
    13   1      0.999 --     4      0.988
    14   1      0.999 --     4      0.988
 ---------------------------------------------------------------------------

Topologies differ in total number of bonds
Writing topology from bond orders to xtbtopo.mol

molecular dipole:
                 x           y           z       tot (Debye)
 q only:       -0.000      -0.000      -0.000
   full:       -0.000      -0.000      -0.000       0.000
molecular quadrupole (traceless):
                xx          xy          yy          xz          yz          zz
 q only:        0.192       0.030      -0.081      -0.025      -0.077      -0.111
Note: The following floating-point exceptions are signalling: IEEE_UNDERFLOW_FLAG
normal termination of xtb
  q+dip:       -1.060      -0.247       0.447       0.204       0.416       0.613
   full:       -0.463      -0.102       0.195       0.085       0.184       0.269

           -------------------------------------------------
          |                Geometry Summary                 |
           -------------------------------------------------

      molecular mass/u    :       58.1223511
   center of mass at/Å    :        2.7002588       0.5071790      -0.5044658
  moments of inertia/u·Å² :        0.2163273E+02   0.1369712E+03   0.1460677E+03
rotational constants/cm⁻¹ :        0.7792650E+00   0.1230743E+00   0.1154097E+00

 * 13 selected distances

     #   Z          #   Z                                           value/Å
     1   6          2   6                                         1.5236725
     2   6          3   6                                         1.5269964 (max)
     3   6          4   6                                         1.5236724
     1   6          5   1                                         1.0875118
     1   6          6   1                                         1.0879723
     1   6          7   1                                         1.0879726
     2   6          8   1                                         1.0925227
     2   6          9   1                                         1.0925221
     3   6         10   1                                         1.0925219
     3   6         11   1                                         1.0925228
     4   6         12   1                                         1.0879728
     4   6         13   1                                         1.0875116 (min)
     4   6         14   1                                         1.0879724

 * 2 distinct bonds (by element types)

   Z      Z             #   av. dist./Å        max./Å        min./Å
   1 H    6 C          10     1.0897003     1.0925228     1.0875116
   6 C    6 C           3     1.5247805     1.5269964     1.5236724


optimized geometry written to: xtbopt.xyz


           -------------------------------------------------
          | TOTAL ENERGY              -13.665127563728 Eh   |
          | GRADIENT NORM               0.000294476483 Eh/α |
          | HOMO-LUMO GAP              13.804132735559 eV   |
           -------------------------------------------------

------------------------------------------------------------------------
 * finished run on 2026/08/28 at 19:10:01.986     
------------------------------------------------------------------------
 total:
 * wall-time:     0 d,  0 h,  0 min,  0.070 sec
 *  cpu-time:     0 d,  0 h,  0 min,  0.037 sec
 * ratio c/w:     0.519 speedup
 SCF:
 * wall-time:     0 d,  0 h,  0 min,  0.005 sec
 *  cpu-time:     0 d,  0 h,  0 min,  0.004 sec
 * ratio c/w:     0.713 speedup
 ANC optimizer:
 * wall-time:     0 d,  0 h,  0 min,  0.043 sec
 *  cpu-time:     0 d,  0 h,  0 min,  0.026 sec
 * ratio c/w:     0.617 speedup

