      -----------------------------------------------------------      
     |                   =====================                   |     
     |                           x T B                           |     
     |                   =====================                   |     
     |                         S. Grimme                         |     
     |          Mulliken Center for Theoretical Chemistry        |     
     |                    University of Bonn                     |     
      -----------------------------------------------------------      

   * xtb version 6.7.1 (unknown) compiled by 'root@buildkitsandbox' on 2026-08-28

   xtb is free software: you can redistribute it and/or modify it under
   the terms of the GNU Lesser General Public License as published by
   the Free Software Foundation, either version 3 of the License, or
   (at your option) any later version.
   
   xtb is distributed in the hope that it will be useful,
   but WITHOUT ANY WARRANTY; without even the implied warranty of
   MERCHANTABILITY or FITNESS FOR A PARTICULAR PURPOSE.  See the
   GNU Lesser General Public License for more details.
   
   Cite this work as:
   * C. Bannwarth, E. Caldeweyher, S. Ehlert, A. Hansen, P. Pracht,
     J. Seibert, S. Spicher, S. Grimme, WIREs Comput. Mol. Sci., 2020, 11,
     e01493. DOI: 10.1002/wcms.1493
   
   for GFN2-xTB:
   * C. Bannwarth, S. Ehlert and S. Grimme., J. Chem. Theory Comput., 2019,
     15, 1652-1671. DOI: 10.1021/acs.jctc.8b01176
   for GFN1-xTB:
   * S. Grimme, C. Bannwarth, P. Shushkov, J. Chem. Theory Comput., 2017,
     13, 1989-2009. DOI: 10.1021/acs.jctc.7b00118
   for GFN0-xTB:
   * P. Pracht, E. Caldeweyher, S. Ehlert, S. Grimme, ChemRxiv, 2019, preprint.
     DOI: 10.26434/chemrxiv.8326202.v1
   for GFN-FF:
   * S. Spicher and S. Grimme, Angew. Chem. Int. Ed., 2020, 59, 15665-15673.
     DOI: 10.1002/anie.202004239
   
   for ALPB and GBSA implicit solvation:
   * S. Ehlert, M. Stahn, S. Spicher, S. Grimme, J. Chem. Theory Comput.,
     2021, 17, 4250-4261. DOI: 10.1021/acs.jctc.1c00471
   
   for ddCOSMO and CPCM-X implicit solvation:
   * M. Stahn, S. Ehlert, S. Grimme, J. Phys. Chem. A,
     2023, XX, XXXX-XXXX. DOI: 10.1021/acs.jpca.3c04382
   
   for DFT-D4:
   * E. Caldeweyher, C. Bannwarth and S. Grimme, J. Chem. Phys., 2017,
     147, 034112. DOI: 10.1063/1.4993215
   * E. Caldeweyher, S. Ehlert, A. Hansen, H. Neugebauer, S. Spicher,
     C. Bannwarth and S. Grimme, J. Chem. Phys., 2019, 150, 154122.
     DOI: 10.1063/1.5090222
   * E. Caldeweyher, J.-M. Mewes, S. Ehlert and S. Grimme, Phys. Chem. Chem. Phys.
     2020, 22, 8499-8512. DOI: 10.1039/D0CP00502A
   
   for sTDA-xTB:
   * S. Grimme and C. Bannwarth, J. Chem. Phys., 2016, 145, 054103.
     DOI: 10.1063/1.4959605
   
   in the mass-spec context:
   * V. Asgeirsson, C. Bauer and S. Grimme, Chem. Sci., 2017, 8, 4879.
     DOI: 10.1039/c7sc00601b
   * J. Koopman and S. Grimme, ACS Omega 2019, 4, 12, 15120-15133.
     DOI: 10.1021/acsomega.9b02011
   
   for metadynamics refer to:
   * S. Grimme, J. Chem. Theory Comput., 2019, 155, 2847-2862
     DOI: 10.1021/acs.jctc.9b00143
   
   for SPH calculations refer to:
   * S. Spicher and S. Grimme, J. Chem. Theory Comput., 2021, 17, 1701-1714
     DOI: 10.1021/acs.jctc.0c01306
   
   for ONIOM refer to:
   * C. Plett, A. Katbashev, S. Ehlert, S. Grimme, M. Bursch,
     Phys. Chem. Chem. Phys., 2023, 25, 17860-17868. DOI: 10.1039/D3CP02178E
   
   for DIPRO refer to:
   * J. Kohn, N. Gildemeister, S. Grimme, D. Fazzi, A. Hansen,
     J. Chem. Phys. 159, 144106 (2023). DOI: 10.1063/5.0167484
   
   for PTB refer to:
   * S. Grimme, M. Mueller, A. Hansen, J. Chem. Phys., 2023, 158, 124111.
     DOI: 10.1063/5.0137838
   
   with help from (in alphabetical order)
   P. Atkinson, C. Bannwarth, F. Bohle, G. Brandenburg, E. Caldeweyher,
   M. Checinski, S. Dohm, S. Ehlert, S. Ehrlich, M. Friede, T. Froitzheim,
   I. Gerasimov, C. Hölzer, A. Katbashev, J. Kohn, J. Koopman, C. Lavigne,
   S. Lehtola, F. März, M. Müller, F. Musil, H. Neugebauer, J. Pisarek,
   C. Plett, P. Pracht, F. Pultar, J. Seibert, P. Shushkov, S. Spicher,
   M. Stahn, M. Steiner, T. Strunk, J. Stückrath, T. Rose, and J. Unsleber
   
 * started run on 2026/08/28 at 19:10:06.743     
   ID    Z sym.   atoms
    1    6 C      1-12
    2    1 H      13-38

           -------------------------------------------------
          |                Calculation Setup                |
           -------------------------------------------------

          program call               : xtb in.xyz --gfn 2 --opt --norestart
          hostname                   : 756d39058c4f
          coordinate file            : in.xyz
          random seed                :            1380698686


           -------------------------------------------------
          |                 G F N 2 - x T B                 |
           -------------------------------------------------

        Reference                      10.1021/acs.jctc.8b01176
      * Hamiltonian:
        H0-scaling (s, p, d)           1.850000    2.230000    2.230000
        zeta-weighting                 0.500000
      * Dispersion:
        s8                             2.700000
        a1                             0.520000
        a2                             5.000000
        s9                             5.000000
      * Repulsion:
        kExp                           1.500000    1.000000
        rExp                           1.000000
      * Coulomb:
        alpha                          2.000000
        third order                    shell-resolved
        anisotropic                    true
        a3                             3.000000
        a5                             4.000000
        cn-shift                       1.200000
        cn-exp                         4.000000
        max-rad                        5.000000


          ...................................................
          :                      SETUP                      :
          :.................................................:
          :  # basis functions                  74          :
          :  # atomic orbitals                  74          :
          :  # shells                           50          :
          :  # electrons                        74          :
          :  max. iterations                   250          :
          :  Hamiltonian                  GFN2-xTB          :
          :  restarted?                      false          :
          :  GBSA solvation                  false          :
          :  PC potential                    false          :
          :  electronic temp.          300.0000000     K    :
          :  accuracy                    1.0000000          :
          :  -> integral cutoff          0.2500000E+02      :
          :  -> integral neglect         0.1000000E-07      :
          :  -> SCF convergence          0.1000000E-05 Eh   :
          :  -> wf. convergence          0.1000000E-03 e    :
          :  Broyden damping             0.4000000          :
          :  net charge                          0          :
          :  unpaired electrons                  0          :
          ...................................................

 iter      E             dE          RMSdq      gap      omega  full diag
   1    -39.4432032 -0.394432E+02  0.264E+00   12.04       0.0  T
   2    -39.5452730 -0.102070E+00  0.146E+00   12.10       1.0  T
   3    -39.5466664 -0.139335E-02  0.757E-01   12.13       1.0  T
   4    -39.5469492 -0.282824E-03  0.842E-02   12.15       1.0  T
   5    -39.5469557 -0.651433E-05  0.427E-02   12.15       1.0  T
   6    -39.5469578 -0.208052E-05  0.200E-03   12.15       8.1  T
   7    -39.5469578 -0.460052E-07  0.850E-04   12.15      19.1  T
   8    -39.5469578 -0.160193E-08  0.338E-04   12.15      48.0  T

   *** convergence criteria satisfied after 8 iterations ***

         #    Occupation            Energy/Eh            Energy/eV
      -------------------------------------------------------------
         1        2.0000           -0.6224699             -16.9383
       ...           ...                  ...                  ...
        31        2.0000           -0.4281379             -11.6502
        32        2.0000           -0.4269069             -11.6167
        33        2.0000           -0.4229890             -11.5101
        34        2.0000           -0.4182862             -11.3821
        35        2.0000           -0.4170252             -11.3478
        36        2.0000           -0.4167742             -11.3410
        37        2.0000           -0.4070734             -11.0770 (HOMO)
        38                          0.0392508               1.0681 (LUMO)
        39                          0.0806540               2.1947
        40                          0.0941778               2.5627
        41                          0.1059870               2.8841
        42                          0.1062816               2.8921
       ...                                ...                  ...
        74                          0.3183907               8.6639
      -------------------------------------------------------------
                  HL-Gap            0.4463242 Eh           12.1451 eV
             Fermi-level           -0.1839113 Eh           -5.0045 eV

 SCC (total)                   0 d,  0 h,  0 min,  0.050 sec
 SCC setup                      ...        0 min,  0.000 sec (  0.165%)
 Dispersion                     ...        0 min,  0.000 sec (  0.290%)
 classical contributions        ...        0 min,  0.000 sec (  0.073%)
 integral evaluation            ...        0 min,  0.006 sec ( 12.331%)
 iterations                     ...        0 min,  0.031 sec ( 61.167%)
 molecular gradient             ...        0 min,  0.013 sec ( 25.065%)
 printout                       ...        0 min,  0.000 sec (  0.888%)

         :::::::::::::::::::::::::::::::::::::::::::::::::::::
         ::                     SUMMARY                     ::
         :::::::::::::::::::::::::::::::::::::::::::::::::::::
         :: total energy             -38.979436537234 Eh    ::
         :: gradient norm              0.020154560288 Eh/a0 ::
         :: HOMO-LUMO gap             12.145099538568 eV    ::
         ::.................................................::
         :: SCC energy               -39.547223439528 Eh    ::
         :: -> isotropic ES            0.006455709704 Eh    ::
         :: -> anisotropic ES          0.013131990237 Eh    ::
         :: -> anisotropic XC          0.024590167735 Eh    ::
         :: -> dispersion             -0.023744472493 Eh    ::
         :: repulsion energy           0.567786902294 Eh    ::
         :: add. restraining           0.000000000000 Eh    ::
         :: total charge              -0.000000000000 e     ::
         :::::::::::::::::::::::::::::::::::::::::::::::::::::

      ----------------------------------------------------------- 
     |                   =====================                   |
     |                        A N C O P T                        |
     |                   =====================                   |
     |               Approximate Normal Coordinate               |
     |                Rational Function Optimizer                |
      ----------------------------------------------------------- 

          ...................................................
          :                      SETUP                      :
          :.................................................:
          :   optimization level            normal          :
          :   max. optcycles                   200          :
          :   ANC micro-cycles                  20          :
          :   degrees of freedom               108          :
          :.................................................:
          :   RF solver                   davidson          :
          :   write xtbopt.log                true          :
          :   linear?                        false          :
          :   energy convergence         0.5000000E-05 Eh   :
          :   grad. convergence          0.1000000E-02 Eh/α :
          :   maximum RF displ.          1.0000000          :
          :   Hlow (freq-cutoff)         0.1000000E-01      :
          :   Hmax (freq-cutoff)         5.0000000          :
          :   S6 in model hess.         20.0000000          :
          ...................................................

generating ANC from exact Hessian ...
Using Lindh-Hessian (1995)
 Shifting diagonal of input Hessian by    9.7563324545534534E-003
 Lowest  eigenvalues of input Hessian
    0.000000    0.000000    0.000000    0.000000    0.000000    0.000000
    0.010000    0.010078    0.010923    0.011164    0.011409    0.012508
    0.012916    0.013770    0.014514    0.014555    0.015536    0.016824
 Highest eigenvalues
    1.214569    1.230889    1.237256    1.260376    1.287893    1.302542


........................................................................
.............................. CYCLE    1 ..............................
........................................................................

 iter      E             dE          RMSdq      gap      omega  full diag
   1    -39.5469578 -0.395470E+02  0.760E-05   12.15       0.0  T
   2    -39.5469578 -0.113261E-10  0.429E-05   12.15     378.3  T
   3    -39.5469578 -0.164846E-11  0.108E-05   12.15    1496.3  T
     SCC iter.                  ...        0 min,  0.015 sec
     gradient                   ...        0 min,  0.014 sec
 * total energy  :   -38.9794365 Eh     change       -0.2657359E-09 Eh
   gradient norm :     0.0201522 Eh/α   predicted     0.0000000E+00 (-100.00%)
   displ. norm   :     0.1258628 α      lambda       -0.1507714E-02
   maximum displ.:     0.0835798 α      in ANC's #8, #49, #72, ...

........................................................................
.............................. CYCLE    2 ..............................
........................................................................

 iter      E             dE          RMSdq      gap      omega  full diag
   1    -39.5626682 -0.395627E+02  0.926E-02   12.12       0.0  T
   2    -39.5626732 -0.496414E-05  0.537E-02   12.12       1.0  T
   3    -39.5626737 -0.547346E-06  0.374E-03   12.11       4.3  T
   4    -39.5626737 -0.317378E-07  0.154E-03   12.11      10.5  T
   5    -39.5626737 -0.414751E-09  0.607E-04   12.11      26.7  T
   6    -39.5626738 -0.805770E-09  0.618E-05   12.11     262.4  T
     SCC iter.                  ...        0 min,  0.018 sec
     gradient                   ...        0 min,  0.010 sec
 * total energy  :   -38.9802273 Eh     change       -0.7907768E-03 Eh
   gradient norm :     0.0060079 Eh/α   predicted    -0.7658006E-03 (  -3.16%)
   displ. norm   :     0.0209164 α      lambda       -0.4201285E-04
   maximum displ.:     0.0159299 α      in ANC's #8, #19, #14, ...

........................................................................
.............................. CYCLE    3 ..............................
........................................................................

 iter      E             dE          RMSdq      gap      omega  full diag
   1    -39.5646368 -0.395646E+02  0.874E-03   12.10       0.0  T
   2    -39.5646372 -0.422095E-06  0.475E-03   12.10       3.4  T
   3    -39.5646372 -0.598360E-08  0.177E-03   12.10       9.2  T
   4    -39.5646372 -0.141899E-08  0.198E-04   12.10      82.1  T
   5    -39.5646372 -0.122370E-09  0.112E-04   12.10     144.4  T
     SCC iter.                  ...        0 min,  0.014 sec
     gradient                   ...        0 min,  0.010 sec
 * total energy  :   -38.9802549 Eh     change       -0.2758716E-04 Eh
   gradient norm :     0.0021012 Eh/α   predicted    -0.2147054E-04 ( -22.17%)
   displ. norm   :     0.0159103 α      lambda       -0.8899528E-05
   maximum displ.:     0.0137906 α      in ANC's #8, #14, #5, ...

........................................................................
.............................. CYCLE    4 ..............................
........................................................................

 iter      E             dE          RMSdq      gap      omega  full diag
   1    -39.5648901 -0.395649E+02  0.446E-03   12.08       0.0  T
   2    -39.5648902 -0.697544E-07  0.260E-03   12.08       6.2  T
   3    -39.5648902 -0.777867E-09  0.734E-04   12.08      22.1  T
   4    -39.5648902 -0.501892E-09  0.812E-05   12.08     199.7  T
     SCC iter.                  ...        0 min,  0.010 sec
     gradient                   ...        0 min,  0.008 sec
 * total energy  :   -38.9802599 Eh     change       -0.4988017E-05 Eh
   gradient norm :     0.0002882 Eh/α   predicted    -0.4457205E-05 ( -10.64%)
   displ. norm   :     0.0109963 α      lambda       -0.5937055E-06
   maximum displ.:     0.0098415 α      in ANC's #8, #5, #14, ...

   *** GEOMETRY OPTIMIZATION CONVERGED AFTER 4 ITERATIONS ***

------------------------------------------------------------------------
 total energy gain   :        -0.0008234 Eh       -0.5167 kcal/mol
 total RMSD          :         0.0244258 a0        0.0129 Å
 total power (kW/mol):        -0.5404278 (step)  -15.6154 (real)
------------------------------------------------------------------------

 ANCopt (total)                0 d,  0 h,  0 min,  0.138 sec
 optimizer setup                ...        0 min,  0.003 sec (  2.229%)
 model hessian                  ...        0 min,  0.007 sec (  5.239%)
 ANC generation                 ...        0 min,  0.007 sec (  5.032%)
 coordinate transformation      ...        0 min,  0.000 sec (  0.205%)
 single point calculation       ...        0 min,  0.119 sec ( 85.720%)
 optimization log               ...        0 min,  0.000 sec (  0.251%)
 hessian update                 ...        0 min,  0.000 sec (  0.069%)
 rational function              ...        0 min,  0.000 sec (  0.354%)

================
 final structure:
================
38
 xtb: 6.7.1 (unknown)
C            0.84110718339909       -0.11549354926097        0.04984422225974
C            2.36440944244318       -0.10162905464148        0.02463011939948
C            2.90714014577891        0.43895553890533       -1.29593843340643
C            4.43317979493943        0.45386248595280       -1.32730197043000
C            4.97616980927606        0.99380719757525       -2.64780900348867
C            6.50228942917017        1.00627240080120       -2.67836915669833
C            7.04589517062148        1.54649055574733       -3.99846883039360
C            8.57201393337777        1.55755136139892       -4.02960431040443
C            9.11500391275555        2.09829958420581       -5.34978244015870
C           10.64104336236324        2.10954289416581       -5.38264512827600
C           11.18377544954201        2.65050818039119       -6.70305706655993
C           12.70707986715379        2.65940562902712       -6.73030162575457
H            0.47629979334624       -0.50359414269245        0.99789991100655
H            0.45240282266505       -0.74200378812204       -0.75001767577220
H            0.44854162040156        0.89025949402564       -0.08332816525796
H            2.73923537477381       -1.11606802476022        0.17938821305915
H            2.73546709666333        0.51585888859689        0.84593931509608
H            2.53297468609939        1.45384212900547       -1.45072117058544
H            2.53530542947818       -0.17789195627953       -2.11764180189564
H            4.80710305725413       -0.56103847924686       -1.17175685134674
H            4.80496292213519        1.07054555973404       -0.50541134758548
H            4.60387796839096        2.00928337511333       -2.80303744304929
H            4.60394980911311        0.37788374977112       -3.46999245291043
H            6.87449590890951       -0.00929390017813       -2.52352177377061
H            6.87462892046643        1.62178225789267       -1.85593746328166
H            6.67450217636241        2.56241930238142       -4.15287197264098
H            6.67274253233120        0.93155127012901       -4.82096248380052
H            8.94333658203887        0.54152716324623       -3.87563028618083
H            8.94520230795248        2.17220359268180       -3.20691182599350
H            8.74333977772029        3.11431989287289       -5.50340311325041
H            8.74096171557357        1.48376430538124       -6.17226036940258
H           11.01284125940401        1.09351818030083       -5.22961998818362
H           11.01524457740894        2.72434603844906       -4.56048678418425
H           10.81205424313035        3.66640819197651       -6.85569443204915
H           10.80961313056150        2.03554720829595       -7.52485542875492
H           13.09893645411354        3.28332613961699       -5.92995513525814
H           13.07188942472174        3.04782703938304       -7.67822530612466
H           13.09649290816353        1.65214328815678       -6.59929054397135

 Bond Distances (Angstroems)
 ---------------------------
C1-C2=1.5236         C1-H13=1.0874        C1-H14=1.0878        C1-H15=1.0878        C2-C1=1.5236         C2-C3=1.5267         
C2-H16=1.0925        C2-H17=1.0925        C3-C2=1.5267         C3-C4=1.5264         C3-H18=1.0927        C3-H19=1.0927        
C4-C3=1.5264         C4-C5=1.5265         C4-H20=1.0927        C4-H21=1.0927        C5-C4=1.5265         C5-C6=1.5265         
C5-H22=1.0927        C5-H23=1.0927        C6-C5=1.5265         C6-C7=1.5264         C6-H24=1.0927        C6-H25=1.0926        
C7-C6=1.5264         C7-C8=1.5265         C7-H26=1.0927        C7-H27=1.0927        C8-C7=1.5265         C8-C9=1.5265         
C8-H28=1.0927        C8-H29=1.0927        C9-C8=1.5265         C9-C10=1.5264        C9-H30=1.0927        C9-H31=1.0927        
C10-C9=1.5264        C10-C11=1.5267       C10-H32=1.0927       C10-H33=1.0927       C11-C10=1.5267       C11-C12=1.5236       
C11-H34=1.0925       C11-H35=1.0925       C12-C11=1.5236       C12-H36=1.0878       C12-H37=1.0874       C12-H38=1.0878       
H13-C1=1.0874        H14-C1=1.0878        H15-C1=1.0878        H16-C2=1.0925        H17-C2=1.0925        H18-C3=1.0927        
H19-C3=1.0927        H20-C4=1.0927        H21-C4=1.0927        H22-C5=1.0927        H23-C5=1.0927        H24-C6=1.0927        
H25-C6=1.0926        H26-C7=1.0927        H27-C7=1.0927        H28-C8=1.0927        H29-C8=1.0927        H30-C9=1.0927        
H31-C9=1.0927        H32-C10=1.0927       H33-C10=1.0927       H34-C11=1.0925       H35-C11=1.0925       H36-C12=1.0878       
H37-C12=1.0874       H38-C12=1.0878       
 C  H  Rav=1.0915 sigma=0.0021  Rmin=1.0874  Rmax=1.0927    26
 C  C  Rav=1.5260 sigma=0.0011  Rmin=1.5236  Rmax=1.5267    11

 selected bond angles (degree)
 --------------------
H13-C1-C2=110.68               H14-C1-C2=110.51               H14-C1-H13=108.40              H15-C1-C2=110.51               
H15-C1-H13=108.40              H15-C1-H14=108.27              C3-C2-C1=111.90                H16-C2-C1=109.40               
H16-C2-C3=109.23               H17-C2-C1=109.41               H17-C2-C3=109.23               H17-C2-H16=107.57              
C4-C3-C2=112.13                H18-C3-C2=109.25               H18-C3-C4=109.29               H19-C3-C2=109.25               
H19-C3-C4=109.29               H19-C3-H18=107.53              C5-C4-C3=112.14                H20-C4-C3=109.28               
H20-C4-C5=109.27               H21-C4-C3=109.28               H21-C4-C5=109.27               H21-C4-H20=107.50              
C6-C5-C4=112.08                H22-C5-C4=109.30               H22-C5-C6=109.28               H23-C5-C4=109.29               
H23-C5-C6=109.28               H23-C5-H22=107.51              C7-C6-C5=112.10                H24-C6-C5=109.28               
H24-C6-C7=109.28               H25-C6-C5=109.28               H25-C6-C7=109.28               H25-C6-H24=107.51              
C8-C7-C6=112.10                H26-C7-C6=109.28               H26-C7-C8=109.28               H27-C7-C6=109.28               
H27-C7-C8=109.28               H27-C7-H26=107.51              C9-C8-C7=112.08                H28-C8-C7=109.28               
H28-C8-C9=109.29               H29-C8-C7=109.28               H29-C8-C9=109.29               H29-C8-H28=107.51              
C10-C9-C8=112.14               H30-C9-C8=109.27               H30-C9-C10=109.28              H31-C9-C8=109.27               
H31-C9-C10=109.28              H31-C9-H30=107.50              C11-C10-C9=112.13              H32-C10-C9=109.29              
H32-C10-C11=109.25             H33-C10-C9=109.29              H33-C10-C11=109.25             H33-C10-H32=107.53             

 selected dihedral angles (degree)
 ---------------------------------
C3-C2-C1-H13=180.00           C3-C2-C1-H14= 59.91           C3-C2-C1-H15=300.09           H16-C2-C1-H13= 58.80          
H16-C2-C1-H14=298.71          H16-C2-C1-H15=178.89          H17-C2-C1-H13=301.20          H17-C2-C1-H14=181.11          
H17-C2-C1-H15= 61.29          C4-C3-C2-C1=180.06            C4-C3-C2-H16=301.35           C4-C3-C2-H17= 58.75           
H18-C3-C2-C1= 58.74           H18-C3-C2-H16=180.04          H18-C3-C2-H17=297.44          H19-C3-C2-C1=301.36           
H19-C3-C2-H16= 62.66          H19-C3-C2-H17=180.06          C5-C4-C3-C2=179.98            C5-C4-C3-H18=301.27           
C5-C4-C3-H19= 58.70           H20-C4-C3-C2= 58.67           H20-C4-C3-H18=179.96          H20-C4-C3-H19=297.39          
H21-C4-C3-C2=301.29           H21-C4-C3-H18= 62.58          H21-C4-C3-H19=180.01          C6-C5-C4-C3=180.08            
C6-C5-C4-H20=301.39           C6-C5-C4-H21= 58.75           H22-C5-C4-C3= 58.78           H22-C5-C4-H20=180.09          
H22-C5-C4-H21=297.45          H23-C5-C4-C3=301.37           H23-C5-C4-H20= 62.68          H23-C5-C4-H21=180.05          
C7-C6-C5-C4=180.02            C7-C6-C5-H22=301.33           C7-C6-C5-H23= 58.72           H24-C6-C5-C4= 58.71           
H24-C6-C5-H22=180.02          H24-C6-C5-H23=297.41          H25-C6-C5-C4=301.33           H25-C6-C5-H22= 62.64          
H25-C6-C5-H23=180.03          C8-C7-C6-C5=180.06            C8-C7-C6-H24=301.36           C8-C7-C6-H25= 58.75           
H26-C7-C6-C5= 58.75           H26-C7-C6-H24=180.06          H26-C7-C6-H25=297.44          H27-C7-C6-C5=301.36           
H27-C7-C6-H24= 62.67          H27-C7-C6-H25=180.06          C9-C8-C7-C6=180.02            C9-C8-C7-H26=301.33           
C9-C8-C7-H27= 58.71           H28-C8-C7-C6= 58.72           H28-C8-C7-H26=180.02          H28-C8-C7-H27=297.41          
H29-C8-C7-C6=301.32           H29-C8-C7-H26= 62.63          H29-C8-C7-H27=180.02          C10-C9-C8-C7=180.02           
C10-C9-C8-H28=301.31          C10-C9-C8-H29= 58.72          H30-C9-C8-C7= 58.70           H30-C9-C8-H28=179.99          
H30-C9-C8-H29=297.40          H31-C9-C8-C7=301.34           H31-C9-C8-H28= 62.63          H31-C9-C8-H29=180.04          
C11-C10-C9-C8=180.00          C11-C10-C9-H30=301.32         C11-C10-C9-H31= 58.69         H32-C10-C9-C8= 58.72          
H32-C10-C9-H30=180.03         H32-C10-C9-H31=297.41         H33-C10-C9-C8=301.29          H33-C10-C9-H30= 62.60         
H33-C10-C9-H31=179.98         
           -------------------------------------------------
          |                Final Singlepoint                |
           -------------------------------------------------

          ...................................................
          :                      SETUP                      :
          :.................................................:
          :  # basis functions                  74          :
          :  # atomic orbitals                  74          :
          :  # shells                           50          :
          :  # electrons                        74          :
          :  max. iterations                   250          :
          :  Hamiltonian                  GFN2-xTB          :
          :  restarted?                      false          :
          :  GBSA solvation                  false          :
          :  PC potential                    false          :
          :  electronic temp.          300.0000000     K    :
          :  accuracy                    1.0000000          :
          :  -> integral cutoff          0.2500000E+02      :
          :  -> integral neglect         0.1000000E-07      :
          :  -> SCF convergence          0.1000000E-05 Eh   :
          :  -> wf. convergence          0.1000000E-03 e    :
          :  Broyden damping             0.4000000          :
          :  net charge                          0          :
          :  unpaired electrons                  0          :
          ...................................................

 iter      E             dE          RMSdq      gap      omega  full diag
   1    -39.5648902 -0.395649E+02  0.380E-05   12.08       0.0  T
   2    -39.5648902 -0.497380E-12  0.227E-05   12.08     714.8  T
   3    -39.5648902 -0.191847E-12  0.205E-06   12.08    7919.0  T

   *** convergence criteria satisfied after 3 iterations ***

         #    Occupation            Energy/Eh            Energy/eV
      -------------------------------------------------------------
         1        2.0000           -0.6231934             -16.9580
       ...           ...                  ...                  ...
        31        2.0000           -0.4273228             -11.6280
        32        2.0000           -0.4260906             -11.5945
        33        2.0000           -0.4234398             -11.5224
        34        2.0000           -0.4183702             -11.3844
        35        2.0000           -0.4165541             -11.3350
        36        2.0000           -0.4165313             -11.3344
        37        2.0000           -0.4095603             -11.1447 (HOMO)
        38                          0.0345270               0.9395 (LUMO)
        39                          0.0763263               2.0769
        40                          0.1015624               2.7637
        41                          0.1135122               3.0888
        42                          0.1135394               3.0896
       ...                                ...                  ...
        74                          0.3265178               8.8850
      -------------------------------------------------------------
                  HL-Gap            0.4440873 Eh           12.0842 eV
             Fermi-level           -0.1875166 Eh           -5.1026 eV

 SCC (total)                   0 d,  0 h,  0 min,  0.026 sec
 SCC setup                      ...        0 min,  0.000 sec (  0.802%)
 Dispersion                     ...        0 min,  0.000 sec (  1.110%)
 classical contributions        ...        0 min,  0.000 sec (  0.430%)
 integral evaluation            ...        0 min,  0.005 sec ( 18.871%)
 iterations                     ...        0 min,  0.007 sec ( 26.074%)
 molecular gradient             ...        0 min,  0.009 sec ( 35.137%)
 printout                       ...        0 min,  0.005 sec ( 17.497%)

         :::::::::::::::::::::::::::::::::::::::::::::::::::::
         ::                     SUMMARY                     ::
         :::::::::::::::::::::::::::::::::::::::::::::::::::::
         :: total energy             -38.980259889560 Eh    ::
         :: gradient norm              0.000288205807 Eh/a0 ::
         :: HOMO-LUMO gap             12.084230011880 eV    ::
         ::.................................................::
         :: SCC energy               -39.565160021582 Eh    ::
         :: -> isotropic ES            0.006644950313 Eh    ::
         :: -> anisotropic ES          0.012489358512 Eh    ::
         :: -> anisotropic XC          0.023763473724 Eh    ::
         :: -> dispersion             -0.023719102413 Eh    ::
         :: repulsion energy           0.584900132022 Eh    ::
         :: add. restraining           0.000000000000 Eh    ::
         :: total charge              -0.000000000000 e     ::
         :::::::::::::::::::::::::::::::::::::::::::::::::::::

           -------------------------------------------------
          |                Property Printout                |
           -------------------------------------------------

    * Orbital Energies and Occupations

         #    Occupation            Energy/Eh            Energy/eV
      -------------------------------------------------------------
         1        2.0000           -0.6231934             -16.9580
       ...           ...                  ...                  ...
        25        2.0000           -0.4527903             -12.3211
        26        2.0000           -0.4455538             -12.1241
        27        2.0000           -0.4437756             -12.0757
        28        2.0000           -0.4340069             -11.8099
        29        2.0000           -0.4325049             -11.7691
        30        2.0000           -0.4312466             -11.7348
        31        2.0000           -0.4273228             -11.6280
        32        2.0000           -0.4260906             -11.5945
        33        2.0000           -0.4234398             -11.5224
        34        2.0000           -0.4183702             -11.3844
        35        2.0000           -0.4165541             -11.3350
        36        2.0000           -0.4165313             -11.3344
        37        2.0000           -0.4095603             -11.1447 (HOMO)
        38                          0.0345270               0.9395 (LUMO)
        39                          0.0763263               2.0769
        40                          0.1015624               2.7637
        41                          0.1135122               3.0888
        42                          0.1135394               3.0896
        43                          0.1165331               3.1710
        44                          0.1197567               3.2587
        45                          0.1320819               3.5941
        46                          0.1336151               3.6359
        47                          0.1392660               3.7896
        48                          0.1425773               3.8797
       ...                                ...                  ...
        74                          0.3265178               8.8850
      -------------------------------------------------------------
                  HL-Gap            0.4440873 Eh           12.0842 eV
             Fermi-level           -0.1875166 Eh           -5.1026 eV

     #   Z          covCN         q      C6AA      α(0)
     1   6          3.752    -0.102    22.511     6.766
     2   6          3.801    -0.053    21.523     6.605
     3   6          3.803    -0.059    21.634     6.622
     4   6          3.803    -0.058    21.623     6.620
     5   6          3.803    -0.058    21.618     6.619
     6   6          3.803    -0.058    21.620     6.620
     7   6          3.803    -0.058    21.620     6.620
     8   6          3.803    -0.058    21.618     6.619
     9   6          3.803    -0.058    21.623     6.620
    10   6          3.803    -0.059    21.634     6.622
    11   6          3.801    -0.053    21.523     6.605
    12   6          3.752    -0.102    22.511     6.766
    13   1          0.925     0.033     2.550     2.497
    14   1          0.925     0.033     2.541     2.493
    15   1          0.925     0.033     2.541     2.493
    16   1          0.924     0.028     2.608     2.526
    17   1          0.924     0.028     2.608     2.526
    18   1          0.924     0.030     2.590     2.517
    19   1          0.924     0.030     2.590     2.517
    20   1          0.924     0.029     2.607     2.525
    21   1          0.924     0.029     2.607     2.525
    22   1          0.924     0.029     2.600     2.522
    23   1          0.924     0.029     2.600     2.522
    24   1          0.924     0.029     2.600     2.522
    25   1          0.924     0.029     2.600     2.522
    26   1          0.924     0.029     2.600     2.522
    27   1          0.924     0.029     2.600     2.522
    28   1          0.924     0.029     2.600     2.522
    29   1          0.924     0.029     2.600     2.522
    30   1          0.924     0.029     2.607     2.525
    31   1          0.924     0.029     2.607     2.525
    32   1          0.924     0.030     2.590     2.517
    33   1          0.924     0.030     2.590     2.517
    34   1          0.924     0.028     2.608     2.526
    35   1          0.924     0.028     2.608     2.526
    36   1          0.925     0.033     2.541     2.493
    37   1          0.925     0.033     2.550     2.497
    38   1          0.925     0.033     2.541     2.493

 Mol. C6AA /au·bohr⁶  :       9534.157251
 Mol. C8AA /au·bohr⁸  :     198732.203146
 Mol. α(0) /au        :        145.113885


Wiberg/Mayer (AO) data.
largest (>0.10) Wiberg bond orders for each atom

 ---------------------------------------------------------------------------
     #   Z sym  total        # sym  WBO       # sym  WBO       # sym  WBO
 ---------------------------------------------------------------------------
     1   6      3.997 --     2      1.019    15      0.988    14      0.988
                            13      0.988
     2   6      3.998 --     1      1.019     3      1.008    17      0.979
                            16      0.979
     3   6      3.997 --     2      1.008     4      1.007    18      0.978
                            19      0.978
     4   6      3.997 --     3      1.007     5      1.007    21      0.978
                            20      0.978
     5   6      3.997 --     4      1.007     6      1.007    22      0.978
                            23      0.978
     6   6      3.997 --     7      1.007     5      1.007    25      0.978
                            24      0.977
     7   6      3.997 --     6      1.007     8      1.007    26      0.978
                            27      0.977
     8   6      3.997 --     9      1.007     7      1.007    29      0.978
                            28      0.978
     9   6      3.997 --    10      1.007     8      1.007    30      0.978
                            31      0.978
    10   6      3.997 --    11      1.008     9      1.007    33      0.978
                            32      0.978
    11   6      3.998 --    12      1.019    10      1.008    34      0.979
                            35      0.979
    12   6      3.997 --    11      1.019    38      0.988    36      0.988
                            37      0.988
    13   1      0.999 --     1      0.988
    14   1      0.999 --     1      0.988
    15   1      0.999 --     1      0.988
    16   1      0.999 --     2      0.979
    17   1      0.999 --     2      0.979
    18   1      0.999 --     3      0.978
    19   1      0.999 --     3      0.978
    20   1      0.999 --     4      0.978
    21   1      0.999 --     4      0.978
    22   1      0.999 --     5      0.978
    23   1      0.999 --     5      0.978
    24   1      0.999 --     6      0.977
    25   1      0.999 --     6      0.978
    26   1      0.999 --     7      0.978
    27   1      0.999 --     7      0.977
    28   1      0.999 --     8      0.978
    29   1      0.999 --     8      0.978
    30   1      0.999 --     9      0.978
    31   1      0.999 --     9      0.978
    32   1      0.999 --    10      0.978
    33   1      0.999 --    10      0.978
    34   1      0.999 --    11      0.979
    35   1      0.999 --    11      0.979
    36   1      0.999 --    12      0.988
    37   1      0.999 --    12      0.988
    38   1      0.999 --    12      0.988
 ---------------------------------------------------------------------------

Topologies differ in total number of bonds
Writing topology from bond orders to xtbtopo.mol

molecular dipole:
                 x           y           z       tot (Debye)
 q only:        0.000      -0.000      -0.000
   full:        0.000      -0.000      -0.000       0.000
molecular quadrupole (traceless):
                xx          xy          yy          xz          yz          zz
 q only:        0.807       0.152      -0.681      -0.377      -0.271      -0.127
  q+dip:       -2.521      -0.554       2.781       1.351       1.496      -0.260
   full:       -0.964      -0.210       1.165       0.509       0.672      -0.201

           -------------------------------------------------
          |                Geometry Summary                 |
           -------------------------------------------------

      molecular mass/u    :      170.3352903
   center of mass at/Å    :        6.7740929       1.2747608      -3.3390825
  moments of inertia/u·Å² :        0.7201032E+02   0.3359710E+04   0.3394139E+04
rotational constants/cm⁻¹ :        0.2341002E+00   0.5017585E-02   0.4966688E-02

 * 37 selected distances

     #   Z          #   Z                                           value/Å
     1   6          2   6                                         1.5235741
     2   6          3   6                                         1.5266598 (max)
     3   6          4   6                                         1.5264348
     4   6          5   6                                         1.5264723
     5   6          6   6                                         1.5264766
     6   6          7   6                                         1.5264359
     7   6          8   6                                         1.5264766
     8   6          9   6                                         1.5264722
Note: The following floating-point exceptions are signalling: IEEE_UNDERFLOW_FLAG
normal termination of xtb
     9   6         10   6                                         1.5264348
    10   6         11   6                                         1.5266596
    11   6         12   6                                         1.5235742
     1   6         13   1                                         1.0874357 (min)
     1   6         14   1                                         1.0878352
     1   6         15   1                                         1.0878336
     2   6         16   1                                         1.0924885
     2   6         17   1                                         1.0924853
     3   6         18   1                                         1.0926813
     3   6         19   1                                         1.0926841
     4   6         20   1                                         1.0927200
     4   6         21   1                                         1.0927146
     5   6         22   1                                         1.0926524
     5   6         23   1                                         1.0926551
     6   6         24   1                                         1.0926530
     6   6         25   1                                         1.0926496
     7   6         26   1                                         1.0926502
     7   6         27   1                                         1.0926524
     8   6         28   1                                         1.0926545
     8   6         29   1                                         1.0926528
     9   6         30   1                                         1.0927173
     9   6         31   1                                         1.0927174
    10   6         32   1                                         1.0926833
    10   6         33   1                                         1.0926820
    11   6         34   1                                         1.0924870
    11   6         35   1                                         1.0924867
    12   6         36   1                                         1.0878341
    12   6         37   1                                         1.0874359
    12   6         38   1                                         1.0878346

 * 2 distinct bonds (by element types)

   Z      Z             #   av. dist./Å        max./Å        min./Å
   1 H    6 C          26     1.0914991     1.0927200     1.0874357
   6 C    6 C          11     1.5259701     1.5266598     1.5235741


optimized geometry written to: xtbopt.xyz


           -------------------------------------------------
          | TOTAL ENERGY              -38.980259889560 Eh   |
          | GRADIENT NORM               0.000288205807 Eh/α |
          | HOMO-LUMO GAP              12.084230011880 eV   |
           -------------------------------------------------

------------------------------------------------------------------------
 * finished run on 2026/08/28 at 19:10:06.970     
------------------------------------------------------------------------
 total:
 * wall-time:     0 d,  0 h,  0 min,  0.228 sec
 *  cpu-time:     0 d,  0 h,  0 min,  0.178 sec
 * ratio c/w:     0.780 speedup
 SCF:
 * wall-time:     0 d,  0 h,  0 min,  0.050 sec
 *  cpu-time:     0 d,  0 h,  0 min,  0.033 sec
 * ratio c/w:     0.648 speedup
 ANC optimizer:
 * wall-time:     0 d,  0 h,  0 min,  0.166 sec
 *  cpu-time:     0 d,  0 h,  0 min,  0.135 sec
 * ratio c/w:     0.810 speedup

