      -----------------------------------------------------------      
     |                   =====================                   |     
     |                           x T B                           |     
     |                   =====================                   |     
     |                         S. Grimme                         |     
     |          Mulliken Center for Theoretical Chemistry        |     
     |                    University of Bonn                     |     
      -----------------------------------------------------------      

   * xtb version 6.7.1 (unknown) compiled by 'root@buildkitsandbox' on 2026-08-28

   xtb is free software: you can redistribute it and/or modify it under
   the terms of the GNU Lesser General Public License as published by
   the Free Software Foundation, either version 3 of the License, or
   (at your option) any later version.
   
   xtb is distributed in the hope that it will be useful,
   but WITHOUT ANY WARRANTY; without even the implied warranty of
   MERCHANTABILITY or FITNESS FOR A PARTICULAR PURPOSE.  See the
   GNU Lesser General Public License for more details.
   
   Cite this work as:
   * C. Bannwarth, E. Caldeweyher, S. Ehlert, A. Hansen, P. Pracht,
     J. Seibert, S. Spicher, S. Grimme, WIREs Comput. Mol. Sci., 2020, 11,
     e01493. DOI: 10.1002/wcms.1493
   
   for GFN2-xTB:
   * C. Bannwarth, S. Ehlert and S. Grimme., J. Chem. Theory Comput., 2019,
     15, 1652-1671. DOI: 10.1021/acs.jctc.8b01176
   for GFN1-xTB:
   * S. Grimme, C. Bannwarth, P. Shushkov, J. Chem. Theory Comput., 2017,
     13, 1989-2009. DOI: 10.1021/acs.jctc.7b00118
   for GFN0-xTB:
   * P. Pracht, E. Caldeweyher, S. Ehlert, S. Grimme, ChemRxiv, 2019, preprint.
     DOI: 10.26434/chemrxiv.8326202.v1
   for GFN-FF:
   * S. Spicher and S. Grimme, Angew. Chem. Int. Ed., 2020, 59, 15665-15673.
     DOI: 10.1002/anie.202004239
   
   for ALPB and GBSA implicit solvation:
   * S. Ehlert, M. Stahn, S. Spicher, S. Grimme, J. Chem. Theory Comput.,
     2021, 17, 4250-4261. DOI: 10.1021/acs.jctc.1c00471
   
   for ddCOSMO and CPCM-X implicit solvation:
   * M. Stahn, S. Ehlert, S. Grimme, J. Phys. Chem. A,
     2023, XX, XXXX-XXXX. DOI: 10.1021/acs.jpca.3c04382
   
   for DFT-D4:
   * E. Caldeweyher, C. Bannwarth and S. Grimme, J. Chem. Phys., 2017,
     147, 034112. DOI: 10.1063/1.4993215
   * E. Caldeweyher, S. Ehlert, A. Hansen, H. Neugebauer, S. Spicher,
     C. Bannwarth and S. Grimme, J. Chem. Phys., 2019, 150, 154122.
     DOI: 10.1063/1.5090222
   * E. Caldeweyher, J.-M. Mewes, S. Ehlert and S. Grimme, Phys. Chem. Chem. Phys.
     2020, 22, 8499-8512. DOI: 10.1039/D0CP00502A
   
   for sTDA-xTB:
   * S. Grimme and C. Bannwarth, J. Chem. Phys., 2016, 145, 054103.
     DOI: 10.1063/1.4959605
   
   in the mass-spec context:
   * V. Asgeirsson, C. Bauer and S. Grimme, Chem. Sci., 2017, 8, 4879.
     DOI: 10.1039/c7sc00601b
   * J. Koopman and S. Grimme, ACS Omega 2019, 4, 12, 15120-15133.
     DOI: 10.1021/acsomega.9b02011
   
   for metadynamics refer to:
   * S. Grimme, J. Chem. Theory Comput., 2019, 155, 2847-2862
     DOI: 10.1021/acs.jctc.9b00143
   
   for SPH calculations refer to:
   * S. Spicher and S. Grimme, J. Chem. Theory Comput., 2021, 17, 1701-1714
     DOI: 10.1021/acs.jctc.0c01306
   
   for ONIOM refer to:
   * C. Plett, A. Katbashev, S. Ehlert, S. Grimme, M. Bursch,
     Phys. Chem. Chem. Phys., 2023, 25, 17860-17868. DOI: 10.1039/D3CP02178E
   
   for DIPRO refer to:
   * J. Kohn, N. Gildemeister, S. Grimme, D. Fazzi, A. Hansen,
     J. Chem. Phys. 159, 144106 (2023). DOI: 10.1063/5.0167484
   
   for PTB refer to:
   * S. Grimme, M. Mueller, A. Hansen, J. Chem. Phys., 2023, 158, 124111.
     DOI: 10.1063/5.0137838
   
   with help from (in alphabetical order)
   P. Atkinson, C. Bannwarth, F. Bohle, G. Brandenburg, E. Caldeweyher,
   M. Checinski, S. Dohm, S. Ehlert, S. Ehrlich, M. Friede, T. Froitzheim,
   I. Gerasimov, C. Hölzer, A. Katbashev, J. Kohn, J. Koopman, C. Lavigne,
   S. Lehtola, F. März, M. Müller, F. Musil, H. Neugebauer, J. Pisarek,
   C. Plett, P. Pracht, F. Pultar, J. Seibert, P. Shushkov, S. Spicher,
   M. Stahn, M. Steiner, T. Strunk, J. Stückrath, T. Rose, and J. Unsleber
   
 * started run on 2026/08/28 at 19:11:51.465     
   ID    Z sym.   atoms
    1    6 C      1-32
    2    1 H      33-98

           -------------------------------------------------
          |                Calculation Setup                |
           -------------------------------------------------

          program call               : xtb in.xyz --gfn 2 --opt --norestart
          hostname                   : 756d39058c4f
          coordinate file            : in.xyz
          random seed                :            1862060381


           -------------------------------------------------
          |                 G F N 2 - x T B                 |
           -------------------------------------------------

        Reference                      10.1021/acs.jctc.8b01176
      * Hamiltonian:
        H0-scaling (s, p, d)           1.850000    2.230000    2.230000
        zeta-weighting                 0.500000
      * Dispersion:
        s8                             2.700000
        a1                             0.520000
        a2                             5.000000
        s9                             5.000000
      * Repulsion:
        kExp                           1.500000    1.000000
        rExp                           1.000000
      * Coulomb:
        alpha                          2.000000
        third order                    shell-resolved
        anisotropic                    true
        a3                             3.000000
        a5                             4.000000
        cn-shift                       1.200000
        cn-exp                         4.000000
        max-rad                        5.000000


          ...................................................
          :                      SETUP                      :
          :.................................................:
          :  # basis functions                 194          :
          :  # atomic orbitals                 194          :
          :  # shells                          130          :
          :  # electrons                       194          :
          :  max. iterations                   250          :
          :  Hamiltonian                  GFN2-xTB          :
          :  restarted?                      false          :
          :  GBSA solvation                  false          :
          :  PC potential                    false          :
          :  electronic temp.          300.0000000     K    :
          :  accuracy                    1.0000000          :
          :  -> integral cutoff          0.2500000E+02      :
          :  -> integral neglect         0.1000000E-07      :
          :  -> SCF convergence          0.1000000E-05 Eh   :
          :  -> wf. convergence          0.1000000E-03 e    :
          :  Broyden damping             0.4000000          :
          :  net charge                          0          :
          :  unpaired electrons                  0          :
          ...................................................

 iter      E             dE          RMSdq      gap      omega  full diag
   1   -103.4827010 -0.103483E+03  0.259E+00   11.49       0.0  T
   2   -103.7365528 -0.253852E+00  0.142E+00   11.57       1.0  T
   3   -103.7404308 -0.387800E-02  0.735E-01   11.60       1.0  T
   4   -103.7411423 -0.711505E-03  0.801E-02   11.62       1.0  T
   5   -103.7411459 -0.352851E-05  0.334E-02   11.62       1.0  T
   6   -103.7411523 -0.644815E-05  0.169E-03   11.62       6.0  T
   7   -103.7411524 -0.849406E-07  0.612E-04   11.62      16.5  T
   8   -103.7411524 -0.245075E-08  0.304E-04   11.62      33.3  T

   *** convergence criteria satisfied after 8 iterations ***

         #    Occupation            Energy/Eh            Energy/eV
      -------------------------------------------------------------
         1        2.0000           -0.6228209             -16.9478
       ...           ...                  ...                  ...
        91        2.0000           -0.4167265             -11.3397
        92        2.0000           -0.4166082             -11.3365
        93        2.0000           -0.4163692             -11.3300
        94        2.0000           -0.4163454             -11.3293
        95        2.0000           -0.4128723             -11.2348
        96        2.0000           -0.4053447             -11.0300
        97        2.0000           -0.4004907             -10.8979 (HOMO)
        98                          0.0265877               0.7235 (LUMO)
        99                          0.0350261               0.9531
       100                          0.0484126               1.3174
       101                          0.0657507               1.7892
       102                          0.0859825               2.3397
       ...                                ...                  ...
       194                          0.3207252               8.7274
      -------------------------------------------------------------
                  HL-Gap            0.4270784 Eh           11.6214 eV
             Fermi-level           -0.1869515 Eh           -5.0872 eV

 SCC (total)                   0 d,  0 h,  0 min,  0.391 sec
 SCC setup                      ...        0 min,  0.003 sec (  0.705%)
 Dispersion                     ...        0 min,  0.001 sec (  0.327%)
 classical contributions        ...        0 min,  0.000 sec (  0.048%)
 integral evaluation            ...        0 min,  0.038 sec (  9.753%)
 iterations                     ...        0 min,  0.276 sec ( 70.419%)
 molecular gradient             ...        0 min,  0.070 sec ( 17.913%)
 printout                       ...        0 min,  0.003 sec (  0.827%)

         :::::::::::::::::::::::::::::::::::::::::::::::::::::
         ::                     SUMMARY                     ::
         :::::::::::::::::::::::::::::::::::::::::::::::::::::
         :: total energy            -102.266317519752 Eh    ::
         :: gradient norm              0.029437479354 Eh/a0 ::
         :: HOMO-LUMO gap             11.621394025652 eV    ::
         ::.................................................::
         :: SCC energy              -103.742300515854 Eh    ::
         :: -> isotropic ES            0.015405897467 Eh    ::
         :: -> anisotropic ES          0.033192610866 Eh    ::
         :: -> anisotropic XC          0.062769399574 Eh    ::
         :: -> dispersion             -0.068291200322 Eh    ::
         :: repulsion energy           1.475982996101 Eh    ::
         :: add. restraining           0.000000000000 Eh    ::
         :: total charge              -0.000000000000 e     ::
         :::::::::::::::::::::::::::::::::::::::::::::::::::::

      ----------------------------------------------------------- 
     |                   =====================                   |
     |                        A N C O P T                        |
     |                   =====================                   |
     |               Approximate Normal Coordinate               |
     |                Rational Function Optimizer                |
      ----------------------------------------------------------- 

          ...................................................
          :                      SETUP                      :
          :.................................................:
          :   optimization level            normal          :
          :   max. optcycles                   294          :
          :   ANC micro-cycles                  20          :
          :   degrees of freedom               288          :
          :.................................................:
          :   RF solver                   davidson          :
          :   write xtbopt.log                true          :
          :   linear?                        false          :
          :   energy convergence         0.5000000E-05 Eh   :
          :   grad. convergence          0.1000000E-02 Eh/α :
          :   maximum RF displ.          1.0000000          :
          :   Hlow (freq-cutoff)         0.1000000E-01      :
          :   Hmax (freq-cutoff)         5.0000000          :
          :   S6 in model hess.         20.0000000          :
          ...................................................

generating ANC from exact Hessian ...
Using Lindh-Hessian (1995)
 Shifting diagonal of input Hessian by    9.9875710447558594E-003
 Lowest  eigenvalues of input Hessian
    0.000000    0.000000    0.000000    0.000000    0.000000    0.000000
    0.010000    0.010003    0.010038    0.010053    0.010131    0.010187
    0.010316    0.010459    0.010625    0.010634    0.010931    0.010937
 Highest eigenvalues
    1.273453    1.284038    1.292581    1.299071    1.303513    1.306059


........................................................................
.............................. CYCLE    1 ..............................
........................................................................

 iter      E             dE          RMSdq      gap      omega  full diag
   1   -103.7411524 -0.103741E+03  0.512E-05   11.62       0.0  T
   2   -103.7411524 -0.239595E-10  0.282E-05   11.62     358.4  T
   3   -103.7411524 -0.181899E-11  0.965E-06   11.62    1046.8  T
     SCC iter.                  ...        0 min,  0.077 sec
     gradient                   ...        0 min,  0.058 sec
 * total energy  :  -102.2663175 Eh     change       -0.4584848E-09 Eh
   gradient norm :     0.0294331 Eh/α   predicted     0.0000000E+00 (-100.00%)
   displ. norm   :     0.1648313 α      lambda       -0.3579318E-02
   maximum displ.:     0.1016425 α      in ANC's #136, #192, #10, ...

........................................................................
.............................. CYCLE    2 ..............................
........................................................................

 iter      E             dE          RMSdq      gap      omega  full diag
   1   -103.7837555 -0.103784E+03  0.782E-02   11.65       0.0  T
   2   -103.7837649 -0.939457E-05  0.451E-02   11.65       1.0  T
   3   -103.7837662 -0.131772E-05  0.335E-03   11.65       3.0  T
   4   -103.7837663 -0.507768E-07  0.149E-03   11.65       6.8  T
   5   -103.7837663  0.493415E-09  0.399E-04   11.65      25.3  T
   6   -103.7837663 -0.203245E-08  0.441E-05   11.65     229.0  T
     SCC iter.                  ...        0 min,  0.156 sec
     gradient                   ...        0 min,  0.063 sec
 * total energy  :  -102.2682500 Eh     change       -0.1932455E-02 Eh
   gradient norm :     0.0071891 Eh/α   predicted    -0.1838286E-02 (  -4.87%)
   displ. norm   :     0.0523668 α      lambda       -0.9246332E-04
   maximum displ.:     0.0482621 α      in ANC's #10, #136, #192, ...

........................................................................
.............................. CYCLE    3 ..............................
........................................................................

 iter      E             dE          RMSdq      gap      omega  full diag
   1   -103.7894698 -0.103789E+03  0.870E-03   11.64       0.0  T
   2   -103.7894705 -0.717524E-06  0.480E-03   11.64       2.1  T
   3   -103.7894706 -0.159192E-07  0.133E-03   11.64       7.6  T
   4   -103.7894706 -0.301013E-08  0.179E-04   11.64      56.5  T
   5   -103.7894706 -0.117353E-09  0.997E-05   11.64     101.4  T
     SCC iter.                  ...        0 min,  0.131 sec
     gradient                   ...        0 min,  0.049 sec
 * total energy  :  -102.2683134 Eh     change       -0.6339393E-04 Eh
   gradient norm :     0.0026902 Eh/α   predicted    -0.4698497E-04 ( -25.88%)
   displ. norm   :     0.0615562 α      lambda       -0.3881959E-04
   maximum displ.:     0.0597203 α      in ANC's #10, #30, #38, ...

........................................................................
.............................. CYCLE    4 ..............................
........................................................................

 iter      E             dE          RMSdq      gap      omega  full diag
   1   -103.7910264 -0.103791E+03  0.448E-03   11.63       0.0  T
   2   -103.7910266 -0.217804E-06  0.260E-03   11.63       3.9  T
   3   -103.7910266 -0.240819E-08  0.764E-04   11.63      13.2  T
   4   -103.7910266 -0.848374E-09  0.710E-05   11.63     142.3  T
     SCC iter.                  ...        0 min,  0.126 sec
     gradient                   ...        0 min,  0.052 sec
 * total energy  :  -102.2683423 Eh     change       -0.2892850E-04 Eh
   gradient norm :     0.0011646 Eh/α   predicted    -0.1960562E-04 ( -32.23%)
   displ. norm   :     0.0707087 α      lambda       -0.1848625E-04
   maximum displ.:     0.0689463 α      in ANC's #10, #16, #30, ...

........................................................................
.............................. CYCLE    5 ..............................
........................................................................

 iter      E             dE          RMSdq      gap      omega  full diag
   1   -103.7899463 -0.103790E+03  0.330E-03   11.62       0.0  T
   2   -103.7899463 -0.145231E-07  0.201E-03   11.62       5.0  T
   3   -103.7899463 -0.995129E-09  0.146E-04   11.62      69.2  T
   4   -103.7899463 -0.513253E-09  0.628E-05   11.62     160.8  T
     SCC iter.                  ...        0 min,  0.090 sec
     gradient                   ...        0 min,  0.054 sec
 * total energy  :  -102.2683655 Eh     change       -0.2318108E-04 Eh
   gradient norm :     0.0021013 Eh/α   predicted    -0.9331722E-05 ( -59.74%)
   displ. norm   :     0.0332518 α      lambda       -0.1263589E-04
   maximum displ.:     0.0324759 α      in ANC's #10, #16, #26, ...

........................................................................
.............................. CYCLE    6 ..............................
........................................................................

 iter      E             dE          RMSdq      gap      omega  full diag
   1   -103.7889806 -0.103789E+03  0.210E-03   11.61       0.0  T
   2   -103.7889806 -0.138047E-07  0.118E-03   11.61       8.6  T
   3   -103.7889806 -0.209027E-09  0.180E-04   11.61      56.2  T
   4   -103.7889806 -0.854214E-10  0.232E-05   11.61     436.0  T
     SCC iter.                  ...        0 min,  0.109 sec
     gradient                   ...        0 min,  0.056 sec
 * total energy  :  -102.2683772 Eh     change       -0.1177051E-04 Eh
   gradient norm :     0.0014138 Eh/α   predicted    -0.6396030E-05 ( -45.66%)
   displ. norm   :     0.0520457 α      lambda       -0.1196389E-04
   maximum displ.:     0.0505992 α      in ANC's #10, #16, #9, ...

........................................................................
.............................. CYCLE    7 ..............................
........................................................................

 iter      E             dE          RMSdq      gap      omega  full diag
   1   -103.7877291 -0.103788E+03  0.375E-03   11.60       0.0  T
   2   -103.7877292 -0.442976E-07  0.212E-03   11.60       4.8  T
   3   -103.7877292 -0.355925E-09  0.313E-04   11.60      32.2  T
   4   -103.7877292 -0.417074E-09  0.350E-05   11.60     289.0  T
     SCC iter.                  ...        0 min,  0.111 sec
     gradient                   ...        0 min,  0.062 sec
 * total energy  :  -102.2683922 Eh     change       -0.1493861E-04 Eh
   gradient norm :     0.0003379 Eh/α   predicted    -0.5989632E-05 ( -59.91%)
   displ. norm   :     0.0410512 α      lambda       -0.6555365E-05
   maximum displ.:     0.0400077 α      in ANC's #10, #16, #9, ...

........................................................................
.............................. CYCLE    8 ..............................
........................................................................

 iter      E             dE          RMSdq      gap      omega  full diag
   1   -103.7874696 -0.103787E+03  0.259E-03   11.60       0.0  T
   2   -103.7874696 -0.254454E-08  0.151E-03   11.60       6.7  T
   3   -103.7874696 -0.234110E-09  0.526E-05   11.60     192.2  T
   4   -103.7874696 -0.649010E-10  0.177E-05   11.60     572.0  T
     SCC iter.                  ...        0 min,  0.136 sec
     gradient                   ...        0 min,  0.053 sec
 * total energy  :  -102.2684010 Eh     change       -0.8824233E-05 Eh
   gradient norm :     0.0006511 Eh/α   predicted    -0.3286697E-05 ( -62.75%)
   displ. norm   :     0.0323978 α      lambda       -0.4444283E-05
   maximum displ.:     0.0317025 α      in ANC's #10, #9, #16, ...

........................................................................
.............................. CYCLE    9 ..............................
........................................................................

 iter      E             dE          RMSdq      gap      omega  full diag
   1   -103.7873372 -0.103787E+03  0.174E-03   11.59       0.0  T
   2   -103.7873372 -0.688971E-09  0.103E-03   11.59       9.8  T
   3   -103.7873372 -0.132971E-09  0.255E-05   11.59     396.7  T
   4   -103.7873372 -0.114255E-10  0.130E-05   11.59     775.3  T
     SCC iter.                  ...        0 min,  0.115 sec
     gradient                   ...        0 min,  0.074 sec
 * total energy  :  -102.2684071 Eh     change       -0.6138006E-05 Eh
   gradient norm :     0.0005257 Eh/α   predicted    -0.2226071E-05 ( -63.73%)
   displ. norm   :     0.0285456 α      lambda       -0.3473027E-05
   maximum displ.:     0.0279941 α      in ANC's #10, #9, #8, ...

........................................................................
.............................. CYCLE   10 ..............................
........................................................................

 iter      E             dE          RMSdq      gap      omega  full diag
   1   -103.7872565 -0.103787E+03  0.152E-03   11.59       0.0  T
   2   -103.7872565 -0.215270E-08  0.904E-04   11.59      11.2  T
   3   -103.7872565 -0.812150E-10  0.390E-05   11.59     259.3  T
     SCC iter.                  ...        0 min,  0.075 sec
     gradient                   ...        0 min,  0.063 sec
 * total energy  :  -102.2684119 Eh     change       -0.4718972E-05 Eh
   gradient norm :     0.0002676 Eh/α   predicted    -0.1737634E-05 ( -63.18%)
   displ. norm   :     0.0253974 α      lambda       -0.2611991E-05
   maximum displ.:     0.0248074 α      in ANC's #10, #9, #26, ...

   *** GEOMETRY OPTIMIZATION CONVERGED AFTER 10 ITERATIONS ***

------------------------------------------------------------------------
 total energy gain   :        -0.0020943 Eh       -1.3142 kcal/mol
 total RMSD          :         0.0463862 a0        0.0245 Å
 total power (kW/mol):        -0.5498713 (step)   -2.6771 (real)
------------------------------------------------------------------------

 ANCopt (total)                0 d,  0 h,  0 min,  2.054 sec
 optimizer setup                ...        0 min,  0.009 sec (  0.420%)
 model hessian                  ...        0 min,  0.039 sec (  1.900%)
 ANC generation                 ...        0 min,  0.068 sec (  3.302%)
 coordinate transformation      ...        0 min,  0.004 sec (  0.211%)
 single point calculation       ...        0 min,  1.920 sec ( 93.493%)
 optimization log               ...        0 min,  0.003 sec (  0.151%)
 hessian update                 ...        0 min,  0.003 sec (  0.139%)
 rational function              ...        0 min,  0.005 sec (  0.264%)

================
 final structure:
================
98
 xtb: 6.7.1 (unknown)
C            0.70911785671959        0.04840644832674        0.11998990120080
C            2.23248078510225        0.03337763670072        0.09920375144667
C            2.77691508162123       -0.80447437914907       -1.05489761251465
C            4.30288824942827       -0.82486534215953       -1.08237591765654
C            4.84474140147436       -1.66373076030558       -2.23676514087546
C            6.37062817632245       -1.68475764345913       -2.26410601650034
C            6.91205298746342       -2.52446372920655       -3.41789679093151
C            8.43785583471703       -2.54555771540790       -3.44430224127689
C            8.97990516406641       -3.38543717318634       -4.59748966630881
C           10.50566200431597       -3.40588404051485       -4.62336031681424
C           11.04787243331656       -4.24568954843943       -5.77640321322352
C           12.57355355584888       -4.26587466634744       -5.80295839371049
C           13.11460898026103       -5.10562469281571       -6.95653792274971
C           14.64019363167056       -5.12611841203017       -6.98470366493262
C           15.17965020204440       -5.96589148751082       -8.13900771867846
C           16.70517030596470       -5.98698685248612       -8.16828488743534
C           17.24391299858576       -6.82691897071051       -9.32280638663412
C           18.76943296096410       -6.84809557335211       -9.35202614268616
C           19.30888733933687       -7.68774721188860      -10.50641969706188
C           20.83447174999328       -7.70827701516181      -10.53456326485897
C           21.37552382136498       -8.54717644355422      -11.68876334106029
C           22.90120466343409       -8.56656786460865      -11.71590153767045
C           23.44341095742010       -9.40465700951736      -12.87019485555596
C           24.96916789784698       -9.42349161131023      -12.89724398160447
C           25.51121258303216      -10.26137148280245      -14.05188739293059
C           27.03701584869322      -10.28069116565733      -14.07958850300429
C           27.57843628372141      -11.11906274986664      -15.23435169246444
C           29.10432288108837      -11.13921049665739      -15.26233730357721
C           29.64617226386225      -11.97818780169359      -16.41664724942747
C           31.17214518635964      -11.99870348683510      -16.44403985160967
C           31.71657580904728      -12.83772723399851      -17.59729145858799
C           33.23993843789638      -12.85348350044382      -17.61755397800157
H            0.34197886918840        0.64985212917511        0.94844633480893
H            0.31957451524577       -0.96149018589929        0.22968751109321
H            0.31950293535143        0.46542764378687       -0.80627097672936
H            2.60461630144144       -0.37006077160778        1.04385901589416
H            2.60458673441459        1.05654512660758        0.00819832729381
H            2.40460035393284       -0.40110379571189       -1.99975045560211
H            2.40423255213531       -1.82768435657200       -0.96419889850934
H            4.67579890328359       -1.22789443638799       -0.13758969835524
H            4.67626459916290        0.19807052164863       -1.17349076930264
H            4.47261285288877       -1.26068309634775       -3.18178314186004
H            4.47159535788731       -2.68671555095156       -2.14589844239696
H            6.74318166224648       -2.08742708848524       -1.31910613051180
H            6.74431300141334       -0.66206362142349       -2.35583324957681
H            6.54027092334940       -2.12182542977418       -4.36320158432424
H            6.53854932615077       -3.54725130438209       -3.32654201337692
H            8.80978101022887       -2.94800034684133       -2.49897441587582
H            8.81155624416962       -1.52288292981852       -3.53603660768454
H            8.60830545844620       -2.98328728994193       -5.54306522492230
H            8.60678091830706       -4.40833274911391       -4.50590852105780
H           10.87749516011456       -3.80807430491727       -3.67790018227509
H           10.87896961674896       -2.38307667460362       -4.71512390869769
H           10.67585757678185       -3.84376079970517       -6.72190560510267
H           10.67501162183128       -5.26865203346256       -5.68455471293899
H           12.94598518670761       -4.66813295474282       -4.85776951088226
H           12.94673396406262       -3.24304025198009       -5.89488097005572
H           12.74164680179757       -4.70353433572392       -7.90159851695200
H           12.74161140361286       -6.12850725332238       -6.86435914306695
H           15.01354848029211       -5.52859927249401       -6.03997338648632
H           15.01351837823667       -4.10336191759491       -7.07690524849025
H           14.80602355255687       -5.56338615488618       -9.08362859162178
H           14.80620520743317       -6.98859925261946       -8.04669785995107
H           17.07894782335279       -6.38955424825848       -7.22375422938249
H           17.07875297664638       -4.96434194782801       -8.26071370791660
H           16.87019224100053       -6.42430591140194      -10.26734102280230
H           16.87027285991914       -7.84954584862418       -9.23041961245486
H           19.14300808737102       -7.25072434309981       -8.40743863669703
H           19.14293097379691       -5.82539469592304       -9.44420924678728
H           18.93558447675276       -7.28509514510835      -11.45109925870157
H           18.93550847179398       -8.71049836448264      -10.41439548755184
H           21.20743472828276       -8.11101591223546       -9.58978121828932
H           21.20747121879972       -6.68533035600470      -10.62604090717149
H           21.00258322715361       -8.14454067158130      -12.63359302615850
H           21.00284893825867       -9.57023497934852      -11.59730861916727
H           23.27381512946114       -8.96940535265990      -10.77102247454241
H           23.27347327267089       -7.54329391785421      -11.80669552498328
H           23.07047771865219       -9.00184166190575      -13.81495653422660
H           23.07119932590879      -10.42793474163720      -12.77923866120581
H           25.34191312605584       -9.82641517986237      -11.95244923522819
H           25.34115057083132       -8.40009331655402      -12.98785079416373
H           25.13802229910985       -9.85825718173599      -14.99642910141960
H           25.13877338539745      -11.28458566742020      -13.96103183542913
H           27.41001415200967      -10.68357082672803      -13.13486371791553
H           27.40930733358318       -9.25742754773190      -14.17053743714031
H           27.20520524648581      -10.71588209404582      -16.17886325663702
H           27.20542543433804      -12.14206214796638      -15.14325915281978
H           29.47701945254909      -11.54182891024598      -14.31735677363190
H           29.47690482335914      -10.11605876172004      -15.35360289668600
H           29.27328197766083      -11.57531181944826      -17.36150379380334
H           29.27277273689925      -13.00110279969727      -16.32536324408652
H           31.54434487993493      -12.40125624372931      -15.49879066722613
H           31.54494578696823      -10.97561902897107      -16.53564035842993
H           31.34491814314324      -12.43492230675754      -18.54240289213343
H           31.34398919872173      -13.86065521412436      -17.50554114528327
H           33.63000334487384      -11.84386568979295      -17.72794857042338
H           33.60707427535279      -13.45579360294165      -18.44538350587753
H           33.62903456050041      -13.26992884843062      -16.69081438841331

 Bond Distances (Angstroems)
 ---------------------------
C1-C2=1.5236         C1-H33=1.0876        C1-H34=1.0880        C1-H35=1.0880        C2-C1=1.5236         C2-C3=1.5266         
C2-H36=1.0925        C2-H37=1.0925        C3-C2=1.5266         C3-C4=1.5264         C3-H38=1.0927        C3-H39=1.0927        
C4-C3=1.5264         C4-C5=1.5264         C4-H40=1.0928        C4-H41=1.0928        C5-C4=1.5264         C5-C6=1.5263         
C5-H42=1.0927        C5-H43=1.0927        C6-C5=1.5263         C6-C7=1.5263         C6-H44=1.0927        C6-H45=1.0927        
C7-C6=1.5263         C7-C8=1.5262         C7-H46=1.0927        C7-H47=1.0927        C8-C7=1.5262         C8-C9=1.5261         
C8-H48=1.0927        C8-H49=1.0927        C9-C8=1.5261         C9-C10=1.5261        C9-H50=1.0927        C9-H51=1.0927        
C10-C9=1.5261        C10-C11=1.5260       C10-H52=1.0927       C10-H53=1.0927       C11-C10=1.5260       C11-C12=1.5260       
C11-H54=1.0927       C11-H55=1.0927       C12-C11=1.5260       C12-C13=1.5260       C12-H56=1.0927       C12-H57=1.0927       
C13-C12=1.5260       C13-C14=1.5260       C13-H58=1.0927       C13-H59=1.0927       C14-C13=1.5260       C14-C15=1.5260       
C14-H60=1.0927       C14-H61=1.0927       C15-C14=1.5260       C15-C16=1.5259       C15-H62=1.0927       C15-H63=1.0927       
C16-C15=1.5259       C16-C17=1.5260       C16-H64=1.0927       C16-H65=1.0927       C17-C16=1.5260       C17-C18=1.5259       
C17-H66=1.0927       C17-H67=1.0927       C18-C17=1.5259       C18-C19=1.5260       C18-H68=1.0927       C18-H69=1.0927       
C19-C18=1.5260       C19-C20=1.5260       C19-H70=1.0927       C19-H71=1.0927       C20-C19=1.5260       C20-C21=1.5260       
C20-H72=1.0927       C20-H73=1.0927       C21-C20=1.5260       C21-C22=1.5260       C21-H74=1.0927       C21-H75=1.0927       
C22-C21=1.5260       C22-C23=1.5260       C22-H76=1.0927       C22-H77=1.0927       C23-C22=1.5260       C23-C24=1.5261       
C23-H78=1.0927       C23-H79=1.0927       C24-C23=1.5261       C24-C25=1.5261       C24-H80=1.0927       C24-H81=1.0927       
C25-C24=1.5261       C25-C26=1.5262       C25-H82=1.0927       C25-H83=1.0927       C26-C25=1.5262       C26-C27=1.5263       
C26-H84=1.0927       C26-H85=1.0927       C27-C26=1.5263       C27-C28=1.5263       C27-H86=1.0927       C27-H87=1.0927       
C28-C27=1.5263       C28-C29=1.5264       C28-H88=1.0927       C28-H89=1.0927       C29-C28=1.5264       C29-C30=1.5264       
C29-H90=1.0928       C29-H91=1.0928       C30-C29=1.5264       C30-C31=1.5266       C30-H92=1.0927       C30-H93=1.0927       
C31-C30=1.5266       C31-C32=1.5236       C31-H94=1.0925       C31-H95=1.0925       C32-C31=1.5236       C32-H96=1.0880       
C32-H97=1.0876       C32-H98=1.0880       H33-C1=1.0876        H34-C1=1.0880        H35-C1=1.0880        H36-C2=1.0925        
H37-C2=1.0925        H38-C3=1.0927        H39-C3=1.0927        H40-C4=1.0928        H41-C4=1.0928        H42-C5=1.0927        
H43-C5=1.0927        H44-C6=1.0927        H45-C6=1.0927        H46-C7=1.0927        H47-C7=1.0927        H48-C8=1.0927        
H49-C8=1.0927        H50-C9=1.0927        H51-C9=1.0927        H52-C10=1.0927       H53-C10=1.0927       H54-C11=1.0927       
H55-C11=1.0927       H56-C12=1.0927       H57-C12=1.0927       H58-C13=1.0927       H59-C13=1.0927       H60-C14=1.0927       
H61-C14=1.0927       H62-C15=1.0927       H63-C15=1.0927       H64-C16=1.0927       H65-C16=1.0927       H66-C17=1.0927       
H67-C17=1.0927       H68-C18=1.0927       H69-C18=1.0927       H70-C19=1.0927       H71-C19=1.0927       H72-C20=1.0927       
H73-C20=1.0927       H74-C21=1.0927       H75-C21=1.0927       H76-C22=1.0927       H77-C22=1.0927       H78-C23=1.0927       
H79-C23=1.0927       H80-C24=1.0927       H81-C24=1.0927       H82-C25=1.0927       H83-C25=1.0927       H84-C26=1.0927       
H85-C26=1.0927       H86-C27=1.0927       H87-C27=1.0927       H88-C28=1.0927       H89-C28=1.0927       H90-C29=1.0928       
H91-C29=1.0928       H92-C30=1.0927       H93-C30=1.0927       H94-C31=1.0925       H95-C31=1.0925       H96-C32=1.0880       
H97-C32=1.0876       H98-C32=1.0880       
 C  H  Rav=1.0922 sigma=0.0014  Rmin=1.0876  Rmax=1.0928    66
 C  C  Rav=1.5260 sigma=0.0007  Rmin=1.5236  Rmax=1.5266    31

 selected bond angles (degree)
 --------------------
H33-C1-C2=110.69               H34-C1-C2=110.50               H34-C1-H33=108.40              H35-C1-C2=110.50               
H35-C1-H33=108.40              H35-C1-H34=108.27              C3-C2-C1=111.86                H36-C2-C1=109.42               
H36-C2-C3=109.24               H37-C2-C1=109.42               H37-C2-C3=109.24               H37-C2-H36=107.57              
C4-C3-C2=112.18                H38-C3-C2=109.24               H38-C3-C4=109.27               H39-C3-C2=109.24               
H39-C3-C4=109.27               H39-C3-H38=107.53              C5-C4-C3=112.08                H40-C4-C3=109.30               
H40-C4-C5=109.27               H41-C4-C3=109.30               H41-C4-C5=109.28               H41-C4-H40=107.50              
C6-C5-C4=112.09                H42-C5-C4=109.30               H42-C5-C6=109.27               H43-C5-C4=109.29               
H43-C5-C6=109.27               H43-C5-H42=107.51              C7-C6-C5=112.07                H44-C6-C5=109.30               
H44-C6-C7=109.27               H45-C6-C5=109.30               H45-C6-C7=109.28               H45-C6-H44=107.51              
C8-C7-C6=112.05                H46-C7-C6=109.30               H46-C7-C8=109.29               H47-C7-C6=109.30               
H47-C7-C8=109.28               H47-C7-H46=107.51              C9-C8-C7=112.07                H48-C8-C7=109.29               
H48-C8-C9=109.28               H49-C8-C7=109.30               H49-C8-C9=109.28               H49-C8-H48=107.51              
C10-C9-C8=112.04               H50-C9-C8=109.30               H50-C9-C10=109.28              H51-C9-C8=109.30               
H51-C9-C10=109.29              H51-C9-H50=107.51              C11-C10-C9=112.05              H52-C10-C9=109.30              
H52-C10-C11=109.29             H53-C10-C9=109.30              H53-C10-C11=109.29             H53-C10-H52=107.51             

 selected dihedral angles (degree)
 ---------------------------------
C3-C2-C1-H33=180.00           C3-C2-C1-H34= 59.90           C3-C2-C1-H35=300.10           H36-C2-C1-H33= 58.81          
H36-C2-C1-H34=298.71          H36-C2-C1-H35=178.91          H37-C2-C1-H33=301.19          H37-C2-C1-H34=181.10          
H37-C2-C1-H35= 61.29          C4-C3-C2-C1=180.02            C4-C3-C2-H36=301.31           C4-C3-C2-H37= 58.72           
H38-C3-C2-C1= 58.70           H38-C3-C2-H36=179.99          H38-C3-C2-H37=297.41          H39-C3-C2-C1=301.33           
H39-C3-C2-H36= 62.62          H39-C3-C2-H37=180.03          C5-C4-C3-C2=179.97            C5-C4-C3-H38=301.28           
C5-C4-C3-H39= 58.68           H40-C4-C3-C2= 58.68           H40-C4-C3-H38=179.98          H40-C4-C3-H39=297.38          
H41-C4-C3-C2=301.27           H41-C4-C3-H38= 62.58          H41-C4-C3-H39=179.98          C6-C5-C4-C3=180.02            
C6-C5-C4-H40=301.33           C6-C5-C4-H41= 58.71           H42-C5-C4-C3= 58.73           H42-C5-C4-H40=180.04          
H42-C5-C4-H41=297.41          H43-C5-C4-C3=301.31           H43-C5-C4-H40= 62.62          H43-C5-C4-H41=180.00          
C7-C6-C5-C4=179.96            C7-C6-C5-H42=301.27           C7-C6-C5-H43= 58.65           H44-C6-C5-C4= 58.67           
H44-C6-C5-H42=179.98          H44-C6-C5-H43=297.37          H45-C6-C5-C4=301.26           H45-C6-C5-H42= 62.57          
H45-C6-C5-H43=179.95          C8-C7-C6-C5=180.02            C8-C7-C6-H44=301.33           C8-C7-C6-H45= 58.72           
H46-C7-C6-C5= 58.73           H46-C7-C6-H44=180.03          H46-C7-C6-H45=297.42          H47-C7-C6-C5=301.31           
H47-C7-C6-H44= 62.61          H47-C7-C6-H45=180.00          C9-C8-C7-C6=179.98            C9-C8-C7-H46=301.28           
C9-C8-C7-H47= 58.68           H48-C8-C7-C6= 58.69           H48-C8-C7-H46=179.99          H48-C8-C7-H47=297.39          
H49-C8-C7-C6=301.28           H49-C8-C7-H46= 62.58          H49-C8-C7-H47=179.98          C10-C9-C8-C7=179.99           
C10-C9-C8-H48=301.29          C10-C9-C8-H49= 58.69          H50-C9-C8-C7= 58.70           H50-C9-C8-H48=180.01          
H50-C9-C8-H49=297.40          H51-C9-C8-C7=301.28           H51-C9-C8-H48= 62.58          H51-C9-C8-H49=179.98          
C11-C10-C9-C8=180.00          C11-C10-C9-H50=301.30         C11-C10-C9-H51= 58.70         H52-C10-C9-C8= 58.71          
H52-C10-C9-H50=180.00         H52-C10-C9-H51=297.41         H53-C10-C9-C8=301.29          H53-C10-C9-H50= 62.59         
H53-C10-C9-H51=179.99         
           -------------------------------------------------
          |                Final Singlepoint                |
           -------------------------------------------------

          ...................................................
          :                      SETUP                      :
          :.................................................:
          :  # basis functions                 194          :
          :  # atomic orbitals                 194          :
          :  # shells                          130          :
          :  # electrons                       194          :
          :  max. iterations                   250          :
          :  Hamiltonian                  GFN2-xTB          :
          :  restarted?                      false          :
          :  GBSA solvation                  false          :
          :  PC potential                    false          :
          :  electronic temp.          300.0000000     K    :
          :  accuracy                    1.0000000          :
          :  -> integral cutoff          0.2500000E+02      :
          :  -> integral neglect         0.1000000E-07      :
          :  -> SCF convergence          0.1000000E-05 Eh   :
          :  -> wf. convergence          0.1000000E-03 e    :
          :  Broyden damping             0.4000000          :
          :  net charge                          0          :
          :  unpaired electrons                  0          :
          ...................................................

 iter      E             dE          RMSdq      gap      omega  full diag
   1   -103.7872565 -0.103787E+03  0.129E-05   11.59       0.0  T
   2   -103.7872565 -0.180478E-11  0.709E-06   11.59    1425.6  T
   3   -103.7872565  0.326850E-12  0.314E-06   11.59    3212.0  T

   *** convergence criteria satisfied after 3 iterations ***

         #    Occupation            Energy/Eh            Energy/eV
      -------------------------------------------------------------
         1        2.0000           -0.6237345             -16.9727
       ...           ...                  ...                  ...
        91        2.0000           -0.4163778             -11.3302
        92        2.0000           -0.4163730             -11.3301
        93        2.0000           -0.4161451             -11.3239
        94        2.0000           -0.4161221             -11.3233
        95        2.0000           -0.4152653             -11.2999
        96        2.0000           -0.4079050             -11.0997
        97        2.0000           -0.4031209             -10.9695 (HOMO)
        98                          0.0226883               0.6174 (LUMO)
        99                          0.0309323               0.8417
       100                          0.0443908               1.2079
       101                          0.0619219               1.6850
       102                          0.0824513               2.2436
       ...                                ...                  ...
       194                          0.3293544               8.9622
      -------------------------------------------------------------
                  HL-Gap            0.4258092 Eh           11.5869 eV
             Fermi-level           -0.1902163 Eh           -5.1760 eV

 SCC (total)                   0 d,  0 h,  0 min,  0.151 sec
 SCC setup                      ...        0 min,  0.000 sec (  0.262%)
 Dispersion                     ...        0 min,  0.001 sec (  0.429%)
 classical contributions        ...        0 min,  0.000 sec (  0.128%)
 integral evaluation            ...        0 min,  0.009 sec (  6.201%)
 iterations                     ...        0 min,  0.082 sec ( 53.982%)
 molecular gradient             ...        0 min,  0.056 sec ( 37.169%)
 printout                       ...        0 min,  0.003 sec (  1.815%)

         :::::::::::::::::::::::::::::::::::::::::::::::::::::
         ::                     SUMMARY                     ::
         :::::::::::::::::::::::::::::::::::::::::::::::::::::
         :: total energy            -102.268411868801 Eh    ::
         :: gradient norm              0.000267751983 Eh/a0 ::
         :: HOMO-LUMO gap             11.586857324362 eV    ::
         ::.................................................::
         :: SCC energy              -103.788420620512 Eh    ::
         :: -> isotropic ES            0.015775057413 Eh    ::
         :: -> anisotropic ES          0.031458632210 Eh    ::
         :: -> anisotropic XC          0.060584192125 Eh    ::
         :: -> dispersion             -0.068234670880 Eh    ::
         :: repulsion energy           1.520008751711 Eh    ::
         :: add. restraining           0.000000000000 Eh    ::
         :: total charge              -0.000000000000 e     ::
         :::::::::::::::::::::::::::::::::::::::::::::::::::::

           -------------------------------------------------
          |                Property Printout                |
           -------------------------------------------------

    * Orbital Energies and Occupations

         #    Occupation            Energy/Eh            Energy/eV
      -------------------------------------------------------------
         1        2.0000           -0.6237345             -16.9727
       ...           ...                  ...                  ...
        85        2.0000           -0.4214522             -11.4683
        86        2.0000           -0.4193452             -11.4110
        87        2.0000           -0.4178553             -11.3704
        88        2.0000           -0.4169133             -11.3448
        89        2.0000           -0.4166893             -11.3387
        90        2.0000           -0.4165879             -11.3359
        91        2.0000           -0.4163778             -11.3302
        92        2.0000           -0.4163730             -11.3301
        93        2.0000           -0.4161451             -11.3239
        94        2.0000           -0.4161221             -11.3233
        95        2.0000           -0.4152653             -11.2999
        96        2.0000           -0.4079050             -11.0997
        97        2.0000           -0.4031209             -10.9695 (HOMO)
        98                          0.0226883               0.6174 (LUMO)
        99                          0.0309323               0.8417
       100                          0.0443908               1.2079
       101                          0.0619219               1.6850
       102                          0.0824513               2.2436
       103                          0.0970681               2.6414
       104                          0.0995535               2.7090
       105                          0.1036179               2.8196
       106                          0.1047338               2.8500
       107                          0.1092028               2.9716
       108                          0.1113507               3.0300
       ...                                ...                  ...
       194                          0.3293544               8.9622
      -------------------------------------------------------------
                  HL-Gap            0.4258092 Eh           11.5869 eV
             Fermi-level           -0.1902163 Eh           -5.1760 eV

     #   Z          covCN         q      C6AA      α(0)
     1   6          3.752    -0.102    22.510     6.766
     2   6          3.801    -0.053    21.523     6.605
     3   6          3.803    -0.059    21.634     6.622
     4   6          3.803    -0.058    21.623     6.620
     5   6          3.803    -0.058    21.619     6.620
     6   6          3.803    -0.058    21.621     6.620
     7   6          3.803    -0.058    21.621     6.620
     8   6          3.803    -0.058    21.621     6.620
     9   6          3.803    -0.058    21.622     6.620
    10   6          3.803    -0.058    21.622     6.620
    11   6          3.803    -0.058    21.622     6.620
    12   6          3.803    -0.058    21.622     6.620
    13   6          3.803    -0.058    21.622     6.620
    14   6          3.803    -0.058    21.622     6.620
    15   6          3.803    -0.058    21.622     6.620
    16   6          3.803    -0.058    21.622     6.620
    17   6          3.803    -0.058    21.622     6.620
    18   6          3.803    -0.058    21.622     6.620
    19   6          3.803    -0.058    21.622     6.620
    20   6          3.803    -0.058    21.622     6.620
    21   6          3.803    -0.058    21.622     6.620
    22   6          3.803    -0.058    21.622     6.620
    23   6          3.803    -0.058    21.622     6.620
    24   6          3.803    -0.058    21.622     6.620
    25   6          3.803    -0.058    21.621     6.620
    26   6          3.803    -0.058    21.621     6.620
    27   6          3.803    -0.058    21.621     6.620
    28   6          3.803    -0.058    21.619     6.620
    29   6          3.803    -0.058    21.623     6.620
    30   6          3.803    -0.059    21.634     6.622
    31   6          3.801    -0.053    21.523     6.605
    32   6          3.752    -0.102    22.510     6.766
    33   1          0.925     0.033     2.550     2.497
    34   1          0.925     0.033     2.541     2.493
    35   1          0.925     0.033     2.541     2.493
    36   1          0.924     0.028     2.608     2.526
    37   1          0.924     0.028     2.608     2.526
    38   1          0.924     0.030     2.590     2.517
    39   1          0.924     0.030     2.590     2.517
    40   1          0.924     0.029     2.607     2.525
    41   1          0.924     0.029     2.607     2.525
    42   1          0.924     0.029     2.600     2.522
    43   1          0.924     0.029     2.600     2.521
    44   1          0.924     0.029     2.600     2.521
    45   1          0.924     0.029     2.600     2.522
    46   1          0.924     0.029     2.599     2.521
    47   1          0.924     0.029     2.599     2.521
    48   1          0.924     0.029     2.599     2.521
    49   1          0.924     0.029     2.599     2.521
    50   1          0.924     0.029     2.598     2.521
    51   1          0.924     0.029     2.598     2.521
    52   1          0.924     0.029     2.598     2.521
    53   1          0.924     0.029     2.598     2.521
    54   1          0.924     0.029     2.598     2.521
    55   1          0.924     0.029     2.598     2.521
    56   1          0.924     0.029     2.598     2.521
    57   1          0.924     0.029     2.598     2.521
    58   1          0.924     0.029     2.598     2.521
    59   1          0.924     0.029     2.598     2.521
    60   1          0.924     0.029     2.598     2.521
    61   1          0.924     0.029     2.598     2.521
    62   1          0.924     0.029     2.598     2.521
    63   1          0.924     0.029     2.598     2.521
    64   1          0.924     0.029     2.598     2.521
    65   1          0.924     0.029     2.598     2.521
    66   1          0.924     0.029     2.598     2.521
    67   1          0.924     0.029     2.598     2.521
    68   1          0.924     0.029     2.598     2.521
    69   1          0.924     0.029     2.598     2.521
    70   1          0.924     0.029     2.598     2.521
    71   1          0.924     0.029     2.598     2.521
    72   1          0.924     0.029     2.598     2.521
    73   1          0.924     0.029     2.598     2.521
    74   1          0.924     0.029     2.598     2.521
    75   1          0.924     0.029     2.598     2.521
    76   1          0.924     0.029     2.598     2.521
    77   1          0.924     0.029     2.598     2.521
    78   1          0.924     0.029     2.598     2.521
    79   1          0.924     0.029     2.598     2.521
    80   1          0.924     0.029     2.598     2.521
    81   1          0.924     0.029     2.598     2.521
    82   1          0.924     0.029     2.599     2.521
    83   1          0.924     0.029     2.599     2.521
    84   1          0.924     0.029     2.599     2.521
    85   1          0.924     0.029     2.599     2.521
    86   1          0.924     0.029     2.600     2.522
    87   1          0.924     0.029     2.600     2.521
    88   1          0.924     0.029     2.600     2.521
    89   1          0.924     0.029     2.600     2.522
    90   1          0.924     0.029     2.607     2.525
    91   1          0.924     0.029     2.607     2.525
    92   1          0.924     0.030     2.590     2.517
    93   1          0.924     0.030     2.590     2.517
    94   1          0.924     0.028     2.608     2.526
    95   1          0.924     0.028     2.608     2.526
    96   1          0.925     0.033     2.541     2.493
    97   1          0.925     0.033     2.550     2.497
    98   1          0.925     0.033     2.541     2.493

 Mol. C6AA /au·bohr⁶  :      64961.260965
 Mol. C8AA /au·bohr⁸  :    1366833.039953
 Mol. α(0) /au        :        378.343469


Wiberg/Mayer (AO) data.
largest (>0.10) Wiberg bond orders for each atom

 ---------------------------------------------------------------------------
     #   Z sym  total        # sym  WBO       # sym  WBO       # sym  WBO
 ---------------------------------------------------------------------------
     1   6      3.997 --     2      1.019    35      0.988    34      0.988
                            33      0.988
     2   6      3.998 --     1      1.019     3      1.008    37      0.979
                            36      0.979
     3   6      3.997 --     2      1.008     4      1.007    38      0.977
                            39      0.977
     4   6      3.997 --     3      1.007     5      1.007    41      0.978
                            40      0.978
     5   6      3.997 --     4      1.007     6      1.007    42      0.977
                            43      0.977
     6   6      3.997 --     5      1.007     7      1.007    45      0.977
                            44      0.977
     7   6      3.997 --     8      1.007     6      1.007    46      0.977
                            47      0.977
     8   6      3.997 --     9      1.007     7      1.007    49      0.977
                            48      0.977
     9   6      3.997 --     8      1.007    10      1.007    51      0.977
                            50      0.977
    10   6      3.997 --    11      1.007     9      1.007    52      0.977
                            53      0.977
    11   6      3.997 --    10      1.007    12      1.007    55      0.977
                            54      0.977
    12   6      3.997 --    13      1.007    11      1.007    56      0.977
                            57      0.977
    13   6      3.997 --    14      1.007    12      1.007    59      0.977
                            58      0.977
    14   6      3.997 --    13      1.007    15      1.007    60      0.977
                            61      0.977
    15   6      3.997 --    16      1.007    14      1.007    63      0.977
                            62      0.977
    16   6      3.997 --    15      1.007    17      1.007    64      0.977
                            65      0.977
    17   6      3.997 --    18      1.007    16      1.007    67      0.977
                            66      0.977
    18   6      3.997 --    17      1.007    19      1.007    68      0.977
                            69      0.977
    19   6      3.997 --    20      1.007    18      1.007    71      0.977
                            70      0.977
    20   6      3.997 --    19      1.007    21      1.007    72      0.977
                            73      0.977
    21   6      3.997 --    20      1.007    22      1.007    75      0.977
                            74      0.977
    22   6      3.997 --    23      1.007    21      1.007    76      0.977
                            77      0.977
    23   6      3.997 --    22      1.007    24      1.007    79      0.977
                            78      0.977
    24   6      3.997 --    25      1.007    23      1.007    80      0.977
                            81      0.977
    25   6      3.997 --    24      1.007    26      1.007    82      0.977
                            83      0.977
    26   6      3.997 --    25      1.007    27      1.007    85      0.977
                            84      0.977
    27   6      3.997 --    28      1.007    26      1.007    86      0.977
                            87      0.977
    28   6      3.997 --    29      1.007    27      1.007    89      0.977
                            88      0.977
    29   6      3.997 --    30      1.007    28      1.007    90      0.978
                            91      0.978
    30   6      3.997 --    31      1.008    29      1.007    93      0.977
                            92      0.977
    31   6      3.998 --    32      1.019    30      1.008    94      0.979
                            95      0.979
    32   6      3.997 --    31      1.019    96      0.988    98      0.988
                            97      0.988
    33   1      0.999 --     1      0.988
    34   1      0.999 --     1      0.988
    35   1      0.999 --     1      0.988
    36   1      0.999 --     2      0.979
    37   1      0.999 --     2      0.979
    38   1      0.999 --     3      0.977
    39   1      0.999 --     3      0.977
    40   1      0.999 --     4      0.978
    41   1      0.999 --     4      0.978
    42   1      0.999 --     5      0.977
    43   1      0.999 --     5      0.977
    44   1      0.999 --     6      0.977
    45   1      0.999 --     6      0.977
    46   1      0.999 --     7      0.977
    47   1      0.999 --     7      0.977
    48   1      0.999 --     8      0.977
    49   1      0.999 --     8      0.977
    50   1      0.999 --     9      0.977
    51   1      0.999 --     9      0.977
    52   1      0.999 --    10      0.977
    53   1      0.999 --    10      0.977
    54   1      0.999 --    11      0.977
    55   1      0.999 --    11      0.977
    56   1      0.999 --    12      0.977
    57   1      0.999 --    12      0.977
    58   1      0.999 --    13      0.977
    59   1      0.999 --    13      0.977
    60   1      0.999 --    14      0.977
    61   1      0.999 --    14      0.977
    62   1      0.999 --    15      0.977
    63   1      0.999 --    15      0.977
    64   1      0.999 --    16      0.977
    65   1      0.999 --    16      0.977
    66   1      0.999 --    17      0.977
    67   1      0.999 --    17      0.977
    68   1      0.999 --    18      0.977
    69   1      0.999 --    18      0.977
    70   1      0.999 --    19      0.977
    71   1      0.999 --    19      0.977
    72   1      0.999 --    20      0.977
    73   1      0.999 --    20      0.977
    74   1      0.999 --    21      0.977
    75   1      0.999 --    21      0.977
    76   1      0.999 --    22      0.977
    77   1      0.999 --    22      0.977
    78   1      0.999 --    23      0.977
    79   1      0.999 --    23      0.977
    80   1      0.999 --    24      0.977
    81   1      0.999 --    24      0.977
    82   1      0.999 --    25      0.977
    83   1      0.999 --    25      0.977
    84   1      0.999 --    26      0.977
    85   1      0.999 --    26      0.977
    86   1      0.999 --    27      0.977
    87   1      0.999 --    27      0.977
    88   1      0.999 --    28      0.977
    89   1      0.999 --    28      0.977
    90   1      0.999 --    29      0.978
    91   1      0.999 --    29      0.978
    92   1      0.999 --    30      0.977
    93   1      0.999 --    30      0.977
    94   1      0.999 --    31      0.979
    95   1      0.999 --    31      0.979
    96   1      0.999 --    32      0.988
    97   1      0.999 --    32      0.988
    98   1      0.999 --    32      0.988
 ---------------------------------------------------------------------------

Topologies differ in total number of bonds
Writing topology from bond orders to xtbtopo.mol

molecular dipole:
                 x           y           z       tot (Debye)
 q only:       -0.000      -0.000       0.000
   full:       -0.000      -0.000       0.000       0.000
molecular quadrupole (traceless):
                xx          xy          yy          xz          yz          zz
 q only:        2.369      -0.773      -1.538      -1.058       1.094      -0.832
  q+dip:       -6.244       2.593       5.113       3.564      -6.138       1.131
   full:       -2.260       0.987       2.033       1.358      -2.784       0.227

           -------------------------------------------------
          |                Geometry Summary                 |
           -------------------------------------------------

      molecular mass/u    :      450.8676383
   center of mass at/Å    :       16.9745368      -6.4042106      -8.7475532
  moments of inertia/u·Å² :        0.1940164E+03   0.6218512E+05   0.6227893E+05
rotational constants/cm⁻¹ :        0.8688765E-01   0.2710879E-03   0.2706796E-03

 * 97 selected distances

     #   Z          #   Z                                           value/Å
     1   6          2   6                                         1.5235790
     2   6          3   6                                         1.5265501
     3   6          4   6                                         1.5263569
     4   6          5   6                                         1.5264059
     5   6          6   6                                         1.5262767
     6   6          7   6                                         1.5262636
     7   6          8   6                                         1.5261772
     8   6          9   6                                         1.5261247
     9   6         10   6                                         1.5261133
    10   6         11   6                                         1.5260320
    11   6         12   6                                         1.5260459
    12   6         13   6                                         1.5259971
    13   6         14   6                                         1.5259824
    14   6         15   6                                         1.5259916
    15   6         16   6                                         1.5259470
    16   6         17   6                                         1.5259915
    17   6         18   6                                         1.5259469
    18   6         19   6                                         1.5259917
    19   6         20   6                                         1.5259822
    20   6         21   6                                         1.5259973
    21   6         22   6                                         1.5260455
    22   6         23   6                                         1.5260323
    23   6         24   6                                         1.5261131
    24   6         25   6                                         1.5261248
    25   6         26   6                                         1.5261771
    26   6         27   6                                         1.5262639
    27   6         28   6                                         1.5262763
    28   6         29   6                                         1.5264061
    29   6         30   6                                         1.5263568
    30   6         31   6                                         1.5265501 (max)
    31   6         32   6                                         1.5235790
     1   6         33   1                                         1.0875975
     1   6         34   1                                         1.0879655
     1   6         35   1                                         1.0879641
     2   6         36   1                                         1.0925297
     2   6         37   1                                         1.0925277
     3   6         38   1                                         1.0927366
     3   6         39   1                                         1.0927385
     4   6         40   1                                         1.0927562
     4   6         41   1                                         1.0927533
     5   6         42   1                                         1.0926968
     5   6         43   1                                         1.0926998
     6   6         44   1                                         1.0926865
     6   6         45   1                                         1.0926836
     7   6         46   1                                         1.0926760
     7   6         47   1                                         1.0926781
     8   6         48   1                                         1.0926726
     8   6         49   1                                         1.0926716
     9   6         50   1                                         1.0926684
     9   6         51   1                                         1.0926685
    10   6         52   1                                         1.0926628
    10   6         53   1                                         1.0926638
    11   6         54   1                                         1.0926650
    11   6         55   1                                         1.0926636
    12   6         56   1                                         1.0926570
    12   6         57   1                                         1.0926591
    13   6         58   1                                         1.0926652
    13   6         59   1                                         1.0926633
    14   6         60   1                                         1.0926574
    14   6         61   1                                         1.0926589
    15   6         62   1                                         1.0926647
    15   6         63   1                                         1.0926636
    16   6         64   1                                         1.0926612
    16   6         65   1                                         1.0926619
    17   6         66   1                                         1.0926621
    17   6         67   1                                         1.0926611
    18   6         68   1                                         1.0926638
    18   6         69   1                                         1.0926645
    19   6         70   1                                         1.0926589
    19   6         71   1                                         1.0926575
    20   6         72   1                                         1.0926634
    20   6         73   1                                         1.0926650
    21   6         74   1                                         1.0926590
    21   6         75   1                                         1.0926571
    22   6         76   1                                         1.0926634
    22   6         77   1                                         1.0926652
    23   6         78   1                                         1.0926638
    23   6         79   1                                         1.0926628
    24   6         80   1                                         1.0926682
    24   6         81   1                                         1.0926687
    25   6         82   1                                         1.0926717
    25   6         83   1                                         1.0926725
    26   6         84   1                                         1.0926779
    26   6         85   1                                         1.0926762
    27   6         86   1                                         1.0926840
    27   6         87   1                                         1.0926861
    28   6         88   1                                         1.0926998
    28   6         89   1                                         1.0926969
    29   6         90   1                                         1.0927536
    29   6         91   1                                         1.0927558
    30   6         92   1                                         1.0927386
    30   6         93   1                                         1.0927365
    31   6         94   1                                         1.0925278
    31   6         95   1                                         1.0925295
    32   6         96   1                                         1.0879641
Note: The following floating-point exceptions are signalling: IEEE_UNDERFLOW_FLAG
normal termination of xtb
    32   6         97   1                                         1.0875974 (min)
    32   6         98   1                                         1.0879655

 * 2 distinct bonds (by element types)

   Z      Z             #   av. dist./Å        max./Å        min./Å
   1 H    6 C          66     1.0922315     1.0927562     1.0875974
   6 C    6 C          31     1.5259896     1.5265501     1.5235790


optimized geometry written to: xtbopt.xyz


           -------------------------------------------------
          | TOTAL ENERGY             -102.268411868801 Eh   |
          | GRADIENT NORM               0.000267751983 Eh/α |
          | HOMO-LUMO GAP              11.586857324362 eV   |
           -------------------------------------------------

------------------------------------------------------------------------
 * finished run on 2026/08/28 at 19:11:54.179     
------------------------------------------------------------------------
 total:
 * wall-time:     0 d,  0 h,  0 min,  2.713 sec
 *  cpu-time:     0 d,  0 h,  0 min,  2.487 sec
 * ratio c/w:     0.917 speedup
 SCF:
 * wall-time:     0 d,  0 h,  0 min,  0.397 sec
 *  cpu-time:     0 d,  0 h,  0 min,  0.311 sec
 * ratio c/w:     0.783 speedup
 ANC optimizer:
 * wall-time:     0 d,  0 h,  0 min,  2.239 sec
 *  cpu-time:     0 d,  0 h,  0 min,  2.150 sec
 * ratio c/w:     0.960 speedup

