      -----------------------------------------------------------      
     |                   =====================                   |     
     |                           x T B                           |     
     |                   =====================                   |     
     |                         S. Grimme                         |     
     |          Mulliken Center for Theoretical Chemistry        |     
     |                    University of Bonn                     |     
      -----------------------------------------------------------      

   * xtb version 6.7.1 (unknown) compiled by 'root@buildkitsandbox' on 2026-08-28

   xtb is free software: you can redistribute it and/or modify it under
   the terms of the GNU Lesser General Public License as published by
   the Free Software Foundation, either version 3 of the License, or
   (at your option) any later version.
   
   xtb is distributed in the hope that it will be useful,
   but WITHOUT ANY WARRANTY; without even the implied warranty of
   MERCHANTABILITY or FITNESS FOR A PARTICULAR PURPOSE.  See the
   GNU Lesser General Public License for more details.
   
   Cite this work as:
   * C. Bannwarth, E. Caldeweyher, S. Ehlert, A. Hansen, P. Pracht,
     J. Seibert, S. Spicher, S. Grimme, WIREs Comput. Mol. Sci., 2020, 11,
     e01493. DOI: 10.1002/wcms.1493
   
   for GFN2-xTB:
   * C. Bannwarth, S. Ehlert and S. Grimme., J. Chem. Theory Comput., 2019,
     15, 1652-1671. DOI: 10.1021/acs.jctc.8b01176
   for GFN1-xTB:
   * S. Grimme, C. Bannwarth, P. Shushkov, J. Chem. Theory Comput., 2017,
     13, 1989-2009. DOI: 10.1021/acs.jctc.7b00118
   for GFN0-xTB:
   * P. Pracht, E. Caldeweyher, S. Ehlert, S. Grimme, ChemRxiv, 2019, preprint.
     DOI: 10.26434/chemrxiv.8326202.v1
   for GFN-FF:
   * S. Spicher and S. Grimme, Angew. Chem. Int. Ed., 2020, 59, 15665-15673.
     DOI: 10.1002/anie.202004239
   
   for ALPB and GBSA implicit solvation:
   * S. Ehlert, M. Stahn, S. Spicher, S. Grimme, J. Chem. Theory Comput.,
     2021, 17, 4250-4261. DOI: 10.1021/acs.jctc.1c00471
   
   for ddCOSMO and CPCM-X implicit solvation:
   * M. Stahn, S. Ehlert, S. Grimme, J. Phys. Chem. A,
     2023, XX, XXXX-XXXX. DOI: 10.1021/acs.jpca.3c04382
   
   for DFT-D4:
   * E. Caldeweyher, C. Bannwarth and S. Grimme, J. Chem. Phys., 2017,
     147, 034112. DOI: 10.1063/1.4993215
   * E. Caldeweyher, S. Ehlert, A. Hansen, H. Neugebauer, S. Spicher,
     C. Bannwarth and S. Grimme, J. Chem. Phys., 2019, 150, 154122.
     DOI: 10.1063/1.5090222
   * E. Caldeweyher, J.-M. Mewes, S. Ehlert and S. Grimme, Phys. Chem. Chem. Phys.
     2020, 22, 8499-8512. DOI: 10.1039/D0CP00502A
   
   for sTDA-xTB:
   * S. Grimme and C. Bannwarth, J. Chem. Phys., 2016, 145, 054103.
     DOI: 10.1063/1.4959605
   
   in the mass-spec context:
   * V. Asgeirsson, C. Bauer and S. Grimme, Chem. Sci., 2017, 8, 4879.
     DOI: 10.1039/c7sc00601b
   * J. Koopman and S. Grimme, ACS Omega 2019, 4, 12, 15120-15133.
     DOI: 10.1021/acsomega.9b02011
   
   for metadynamics refer to:
   * S. Grimme, J. Chem. Theory Comput., 2019, 155, 2847-2862
     DOI: 10.1021/acs.jctc.9b00143
   
   for SPH calculations refer to:
   * S. Spicher and S. Grimme, J. Chem. Theory Comput., 2021, 17, 1701-1714
     DOI: 10.1021/acs.jctc.0c01306
   
   for ONIOM refer to:
   * C. Plett, A. Katbashev, S. Ehlert, S. Grimme, M. Bursch,
     Phys. Chem. Chem. Phys., 2023, 25, 17860-17868. DOI: 10.1039/D3CP02178E
   
   for DIPRO refer to:
   * J. Kohn, N. Gildemeister, S. Grimme, D. Fazzi, A. Hansen,
     J. Chem. Phys. 159, 144106 (2023). DOI: 10.1063/5.0167484
   
   for PTB refer to:
   * S. Grimme, M. Mueller, A. Hansen, J. Chem. Phys., 2023, 158, 124111.
     DOI: 10.1063/5.0137838
   
   with help from (in alphabetical order)
   P. Atkinson, C. Bannwarth, F. Bohle, G. Brandenburg, E. Caldeweyher,
   M. Checinski, S. Dohm, S. Ehlert, S. Ehrlich, M. Friede, T. Froitzheim,
   I. Gerasimov, C. Hölzer, A. Katbashev, J. Kohn, J. Koopman, C. Lavigne,
   S. Lehtola, F. März, M. Müller, F. Musil, H. Neugebauer, J. Pisarek,
   C. Plett, P. Pracht, F. Pultar, J. Seibert, P. Shushkov, S. Spicher,
   M. Stahn, M. Steiner, T. Strunk, J. Stückrath, T. Rose, and J. Unsleber
   
 * started run on 2026/08/28 at 19:28:11.076     
   ID    Z sym.   atoms
    1    6 C      1-32
    2    1 H      33-98

           -------------------------------------------------
          |                Calculation Setup                |
           -------------------------------------------------

          program call               : xtb opt.xyz --gfn 2 --hess --norestart
          hostname                   : 756d39058c4f
          coordinate file            : opt.xyz
          random seed                :            1844729070


           -------------------------------------------------
          |                 G F N 2 - x T B                 |
           -------------------------------------------------

        Reference                      10.1021/acs.jctc.8b01176
      * Hamiltonian:
        H0-scaling (s, p, d)           1.850000    2.230000    2.230000
        zeta-weighting                 0.500000
      * Dispersion:
        s8                             2.700000
        a1                             0.520000
        a2                             5.000000
        s9                             5.000000
      * Repulsion:
        kExp                           1.500000    1.000000
        rExp                           1.000000
      * Coulomb:
        alpha                          2.000000
        third order                    shell-resolved
        anisotropic                    true
        a3                             3.000000
        a5                             4.000000
        cn-shift                       1.200000
        cn-exp                         4.000000
        max-rad                        5.000000


          ...................................................
          :                      SETUP                      :
          :.................................................:
          :  # basis functions                 194          :
          :  # atomic orbitals                 194          :
          :  # shells                          130          :
          :  # electrons                       194          :
          :  max. iterations                   250          :
          :  Hamiltonian                  GFN2-xTB          :
          :  restarted?                      false          :
          :  GBSA solvation                  false          :
          :  PC potential                    false          :
          :  electronic temp.          300.0000000     K    :
          :  accuracy                    1.0000000          :
          :  -> integral cutoff          0.2500000E+02      :
          :  -> integral neglect         0.1000000E-07      :
          :  -> SCF convergence          0.1000000E-05 Eh   :
          :  -> wf. convergence          0.1000000E-03 e    :
          :  Broyden damping             0.4000000          :
          :  net charge                          0          :
          :  unpaired electrons                  0          :
          ...................................................

 iter      E             dE          RMSdq      gap      omega  full diag
   1   -103.5328652 -0.103533E+03  0.257E+00   11.46       0.0  T
   2   -103.7824889 -0.249624E+00  0.141E+00   11.54       1.0  T
   3   -103.7865594 -0.407053E-02  0.729E-01   11.57       1.0  T
   4   -103.7872458 -0.686421E-03  0.787E-02   11.59       1.0  T
   5   -103.7872503 -0.446619E-05  0.337E-02   11.59       1.0  T
   6   -103.7872564 -0.616715E-05  0.160E-03   11.59       6.3  T
   7   -103.7872565 -0.802329E-07  0.578E-04   11.59      17.5  T
   8   -103.7872565 -0.241766E-08  0.292E-04   11.59      34.6  T

   *** convergence criteria satisfied after 8 iterations ***

         #    Occupation            Energy/Eh            Energy/eV
      -------------------------------------------------------------
         1        2.0000           -0.6237324             -16.9726
       ...           ...                  ...                  ...
        91        2.0000           -0.4163772             -11.3302
        92        2.0000           -0.4163722             -11.3301
        93        2.0000           -0.4161441             -11.3239
        94        2.0000           -0.4161210             -11.3232
        95        2.0000           -0.4152639             -11.2999
        96        2.0000           -0.4079037             -11.0996
        97        2.0000           -0.4031195             -10.9694 (HOMO)
        98                          0.0226899               0.6174 (LUMO)
        99                          0.0309337               0.8417
       100                          0.0443921               1.2080
       101                          0.0619235               1.6850
       102                          0.0824530               2.2437
       ...                                ...                  ...
       194                          0.3293551               8.9622
      -------------------------------------------------------------
                  HL-Gap            0.4258094 Eh           11.5869 eV
             Fermi-level           -0.1902148 Eh           -5.1760 eV

 SCC (total)                   0 d,  0 h,  0 min,  0.289 sec
 SCC setup                      ...        0 min,  0.000 sec (  0.131%)
 Dispersion                     ...        0 min,  0.001 sec (  0.300%)
 classical contributions        ...        0 min,  0.000 sec (  0.065%)
 integral evaluation            ...        0 min,  0.010 sec (  3.373%)
 iterations                     ...        0 min,  0.233 sec ( 80.459%)
 molecular gradient             ...        0 min,  0.042 sec ( 14.632%)
 printout                       ...        0 min,  0.003 sec (  1.036%)

         :::::::::::::::::::::::::::::::::::::::::::::::::::::
         ::                     SUMMARY                     ::
         :::::::::::::::::::::::::::::::::::::::::::::::::::::
         :: total energy            -102.268411868457 Eh    ::
         :: gradient norm              0.000267529077 Eh/a0 ::
         :: HOMO-LUMO gap             11.586862452523 eV    ::
         ::.................................................::
         :: SCC energy              -103.788420620168 Eh    ::
         :: -> isotropic ES            0.015775057027 Eh    ::
         :: -> anisotropic ES          0.031458408416 Eh    ::
         :: -> anisotropic XC          0.060583804687 Eh    ::
         :: -> dispersion             -0.068234670589 Eh    ::
         :: repulsion energy           1.520008751711 Eh    ::
         :: add. restraining           0.000000000000 Eh    ::
         :: total charge               0.000000000000 e     ::
         :::::::::::::::::::::::::::::::::::::::::::::::::::::

           ------------------------------------------------- 
          |                Numerical Hessian                |
           ------------------------------------------------- 
step length          :   0.00500
SCC accuracy         :   0.30000
Hessian scale factor :   1.00000
frozen atoms in %    :   0.00000    0
RMS gradient         :   0.00027
estimated CPU  time      1.87 min
estimated wall time      1.89 min

writing file <hessian>, containing the non-mass-weighted Hessian matrix in atomic units (Eₕ/Bohr²).

 projected vibrational frequencies (cm⁻¹)
eigval :       -0.00    -0.00    -0.00     0.00     0.00     0.00
eigval :       -1.94     4.07     6.64    13.96    14.08    15.28
eigval :       24.83    28.37    30.37    36.88    45.85    46.88
eigval :       50.44    61.23    65.02    69.34    73.80    76.07
eigval :       80.13    90.47    95.19    95.43   104.30   109.62
eigval :      117.41   122.84   124.48   129.57   134.46   140.42
eigval :      144.29   146.22   149.64   152.03   156.46   156.52
eigval :      157.67   160.65   161.14   190.70   214.87   227.39
eigval :      233.85   233.86   262.48   282.05   300.49   338.40
eigval :      341.15   375.84   392.68   413.11   434.10   450.25
eigval :      466.68   483.87   493.02   509.44   513.01   525.13
eigval :      525.92   768.73   768.81   768.89   769.14   769.32
eigval :      769.47   770.35   772.16   774.95   778.94   784.33
eigval :      791.29   799.98   810.24   822.27   835.77   850.61
eigval :      866.62   883.27   900.58   918.04   935.37   941.02
eigval :      941.03   952.28   968.49   983.73   997.74  1010.24
eigval :     1020.96  1027.46  1028.02  1029.61  1033.49  1035.53
eigval :     1035.98  1039.84  1042.86  1047.07  1053.98  1061.22
eigval :     1065.92  1076.60  1077.51  1088.08  1092.16  1097.45
eigval :     1100.18  1101.56  1104.34  1105.12  1105.31  1108.50
eigval :     1110.40  1111.79  1114.15  1114.28  1116.09  1117.53
eigval :     1118.31  1118.31  1124.03  1137.19  1137.99  1197.77
eigval :     1199.09  1201.96  1204.74  1206.38  1211.97  1212.21
eigval :     1219.18  1221.20  1227.00  1231.20  1235.37  1241.47
eigval :     1243.98  1251.86  1252.57  1260.84  1262.31  1265.46
eigval :     1267.23  1268.90  1270.54  1272.79  1274.55  1275.69
eigval :     1279.18  1281.52  1283.28  1284.24  1286.54  1289.31
eigval :     1290.87  1293.66  1293.71  1294.65  1297.21  1297.69
eigval :     1299.70  1299.96  1301.19  1301.40  1303.99  1314.02
eigval :     1323.59  1332.89  1341.48  1349.33  1356.54  1362.73
eigval :     1368.17  1372.53  1375.91  1377.47  1378.01  1378.36
eigval :     1378.90  1379.72  1380.03  1380.47  1380.90  1380.98
eigval :     1416.21  1416.23  1494.71  1494.74  1495.00  1495.00
eigval :     1495.43  1495.46  1496.01  1496.07  1496.75  1496.75
eigval :     1497.52  1497.65  1498.33  1498.69  1499.18  1499.68
eigval :     1500.21  1500.47  1501.14  1501.42  1501.78  1502.09
eigval :     1502.44  1502.63  1502.76  1502.96  1504.27  1504.82
eigval :     1504.83  1505.49  1506.49  1507.20  1508.07  1508.08
eigval :     2952.72  2952.73  2952.95  2952.98  2953.06  2953.25
eigval :     2953.52  2953.88  2954.35  2954.91  2955.58  2956.33
eigval :     2957.21  2958.15  2959.23  2960.39  2961.65  2963.06
eigval :     2964.54  2966.13  2967.79  2969.51  2971.27  2971.40
eigval :     2971.42  2971.53  2971.54  2971.85  2971.86  2972.34
eigval :     2972.35  2972.97  2972.97  2973.06  2973.72  2973.75
eigval :     2974.63  2974.64  2974.86  2975.60  2975.71  2976.55
eigval :     2976.64  2976.91  2977.42  2977.87  2978.41  2978.43
eigval :     2979.90  2980.03  2981.52  2981.65  2982.90  2983.23
eigval :     2985.00  2986.79  2988.57  2990.22  2991.76  2992.92
eigval :     3029.49  3029.52  3031.95  3031.96  3037.32  3037.33
           -------------------------------------------------
          |                Property Printout                |
           -------------------------------------------------

    * Orbital Energies and Occupations

         #    Occupation            Energy/Eh            Energy/eV
      -------------------------------------------------------------
         1        2.0000           -0.6237345             -16.9727
       ...           ...                  ...                  ...
        85        2.0000           -0.4214522             -11.4683
        86        2.0000           -0.4193451             -11.4110
        87        2.0000           -0.4178553             -11.3704
        88        2.0000           -0.4169132             -11.3448
        89        2.0000           -0.4166892             -11.3387
        90        2.0000           -0.4165879             -11.3359
        91        2.0000           -0.4163778             -11.3302
        92        2.0000           -0.4163730             -11.3301
        93        2.0000           -0.4161451             -11.3239
        94        2.0000           -0.4161220             -11.3233
        95        2.0000           -0.4152653             -11.2999
        96        2.0000           -0.4079050             -11.0997
        97        2.0000           -0.4031209             -10.9695 (HOMO)
        98                          0.0226883               0.6174 (LUMO)
        99                          0.0309323               0.8417
       100                          0.0443908               1.2079
       101                          0.0619220               1.6850
       102                          0.0824513               2.2436
       103                          0.0970682               2.6414
       104                          0.0995535               2.7090
       105                          0.1036179               2.8196
       106                          0.1047338               2.8500
       107                          0.1092028               2.9716
       108                          0.1113507               3.0300
       ...                                ...                  ...
       194                          0.3293544               8.9622
      -------------------------------------------------------------
                  HL-Gap            0.4258092 Eh           11.5869 eV
             Fermi-level           -0.1902163 Eh           -5.1760 eV

     #   Z          covCN         q      C6AA      α(0)
     1   6          3.752    -0.102    22.510     6.766
     2   6          3.801    -0.053    21.523     6.605
     3   6          3.803    -0.059    21.634     6.622
     4   6          3.803    -0.058    21.623     6.620
     5   6          3.803    -0.058    21.619     6.620
     6   6          3.803    -0.058    21.621     6.620
     7   6          3.803    -0.058    21.621     6.620
     8   6          3.803    -0.058    21.621     6.620
     9   6          3.803    -0.058    21.622     6.620
    10   6          3.803    -0.058    21.622     6.620
    11   6          3.803    -0.058    21.622     6.620
    12   6          3.803    -0.058    21.622     6.620
    13   6          3.803    -0.058    21.622     6.620
    14   6          3.803    -0.058    21.622     6.620
    15   6          3.803    -0.058    21.622     6.620
    16   6          3.803    -0.058    21.622     6.620
    17   6          3.803    -0.058    21.622     6.620
    18   6          3.803    -0.058    21.622     6.620
    19   6          3.803    -0.058    21.622     6.620
    20   6          3.803    -0.058    21.622     6.620
    21   6          3.803    -0.058    21.622     6.620
    22   6          3.803    -0.058    21.622     6.620
    23   6          3.803    -0.058    21.622     6.620
    24   6          3.803    -0.058    21.622     6.620
    25   6          3.803    -0.058    21.621     6.620
    26   6          3.803    -0.058    21.621     6.620
    27   6          3.803    -0.058    21.621     6.620
    28   6          3.803    -0.058    21.619     6.620
    29   6          3.803    -0.058    21.623     6.620
    30   6          3.803    -0.059    21.634     6.622
    31   6          3.801    -0.053    21.523     6.605
    32   6          3.752    -0.102    22.510     6.766
    33   1          0.925     0.033     2.550     2.497
    34   1          0.925     0.033     2.541     2.493
    35   1          0.925     0.033     2.541     2.493
    36   1          0.924     0.028     2.608     2.526
    37   1          0.924     0.028     2.608     2.526
    38   1          0.924     0.030     2.590     2.517
    39   1          0.924     0.030     2.590     2.517
    40   1          0.924     0.029     2.607     2.525
    41   1          0.924     0.029     2.607     2.525
    42   1          0.924     0.029     2.600     2.522
    43   1          0.924     0.029     2.600     2.521
    44   1          0.924     0.029     2.600     2.521
    45   1          0.924     0.029     2.600     2.522
    46   1          0.924     0.029     2.599     2.521
    47   1          0.924     0.029     2.599     2.521
    48   1          0.924     0.029     2.599     2.521
    49   1          0.924     0.029     2.599     2.521
    50   1          0.924     0.029     2.598     2.521
    51   1          0.924     0.029     2.598     2.521
    52   1          0.924     0.029     2.598     2.521
    53   1          0.924     0.029     2.598     2.521
    54   1          0.924     0.029     2.598     2.521
    55   1          0.924     0.029     2.598     2.521
    56   1          0.924     0.029     2.598     2.521
    57   1          0.924     0.029     2.598     2.521
    58   1          0.924     0.029     2.598     2.521
    59   1          0.924     0.029     2.598     2.521
    60   1          0.924     0.029     2.598     2.521
    61   1          0.924     0.029     2.598     2.521
    62   1          0.924     0.029     2.598     2.521
    63   1          0.924     0.029     2.598     2.521
    64   1          0.924     0.029     2.598     2.521
    65   1          0.924     0.029     2.598     2.521
    66   1          0.924     0.029     2.598     2.521
    67   1          0.924     0.029     2.598     2.521
    68   1          0.924     0.029     2.598     2.521
    69   1          0.924     0.029     2.598     2.521
    70   1          0.924     0.029     2.598     2.521
    71   1          0.924     0.029     2.598     2.521
    72   1          0.924     0.029     2.598     2.521
    73   1          0.924     0.029     2.598     2.521
    74   1          0.924     0.029     2.598     2.521
    75   1          0.924     0.029     2.598     2.521
    76   1          0.924     0.029     2.598     2.521
    77   1          0.924     0.029     2.598     2.521
    78   1          0.924     0.029     2.598     2.521
    79   1          0.924     0.029     2.598     2.521
    80   1          0.924     0.029     2.598     2.521
    81   1          0.924     0.029     2.598     2.521
    82   1          0.924     0.029     2.599     2.521
    83   1          0.924     0.029     2.599     2.521
    84   1          0.924     0.029     2.599     2.521
    85   1          0.924     0.029     2.599     2.521
    86   1          0.924     0.029     2.600     2.522
    87   1          0.924     0.029     2.600     2.521
    88   1          0.924     0.029     2.600     2.521
    89   1          0.924     0.029     2.600     2.522
    90   1          0.924     0.029     2.607     2.525
    91   1          0.924     0.029     2.607     2.525
    92   1          0.924     0.030     2.590     2.517
    93   1          0.924     0.030     2.590     2.517
    94   1          0.924     0.028     2.608     2.526
    95   1          0.924     0.028     2.608     2.526
    96   1          0.925     0.033     2.541     2.493
    97   1          0.925     0.033     2.550     2.497
    98   1          0.925     0.033     2.541     2.493

 Mol. C6AA /au·bohr⁶  :      64961.260262
 Mol. C8AA /au·bohr⁸  :    1366833.033609
 Mol. α(0) /au        :        378.343467


Wiberg/Mayer (AO) data.
largest (>0.10) Wiberg bond orders for each atom

 ---------------------------------------------------------------------------
     #   Z sym  total        # sym  WBO       # sym  WBO       # sym  WBO
 ---------------------------------------------------------------------------
     1   6      3.997 --     2      1.019    35      0.988    34      0.988
                            33      0.988
     2   6      3.998 --     1      1.019     3      1.008    37      0.979
                            36      0.979
     3   6      3.997 --     2      1.008     4      1.007    38      0.977
                            39      0.977
     4   6      3.997 --     3      1.007     5      1.007    41      0.978
                            40      0.978
     5   6      3.997 --     4      1.007     6      1.007    42      0.977
                            43      0.977
     6   6      3.997 --     5      1.007     7      1.007    45      0.977
                            44      0.977
     7   6      3.997 --     8      1.007     6      1.007    46      0.977
                            47      0.977
     8   6      3.997 --     9      1.007     7      1.007    49      0.977
                            48      0.977
     9   6      3.997 --     8      1.007    10      1.007    51      0.977
                            50      0.977
    10   6      3.997 --    11      1.007     9      1.007    52      0.977
                            53      0.977
    11   6      3.997 --    10      1.007    12      1.007    55      0.977
                            54      0.977
    12   6      3.997 --    13      1.007    11      1.007    56      0.977
                            57      0.977
    13   6      3.997 --    14      1.007    12      1.007    59      0.977
                            58      0.977
    14   6      3.997 --    13      1.007    15      1.007    60      0.977
                            61      0.977
    15   6      3.997 --    16      1.007    14      1.007    63      0.977
                            62      0.977
    16   6      3.997 --    15      1.007    17      1.007    64      0.977
                            65      0.977
    17   6      3.997 --    18      1.007    16      1.007    67      0.977
                            66      0.977
    18   6      3.997 --    17      1.007    19      1.007    68      0.977
                            69      0.977
    19   6      3.997 --    20      1.007    18      1.007    71      0.977
                            70      0.977
    20   6      3.997 --    19      1.007    21      1.007    72      0.977
                            73      0.977
    21   6      3.997 --    20      1.007    22      1.007    75      0.977
                            74      0.977
    22   6      3.997 --    23      1.007    21      1.007    76      0.977
                            77      0.977
    23   6      3.997 --    22      1.007    24      1.007    79      0.977
                            78      0.977
    24   6      3.997 --    25      1.007    23      1.007    80      0.977
                            81      0.977
    25   6      3.997 --    24      1.007    26      1.007    82      0.977
                            83      0.977
    26   6      3.997 --    25      1.007    27      1.007    85      0.977
                            84      0.977
    27   6      3.997 --    28      1.007    26      1.007    86      0.977
                            87      0.977
    28   6      3.997 --    29      1.007    27      1.007    89      0.977
                            88      0.977
    29   6      3.997 --    30      1.007    28      1.007    90      0.978
                            91      0.978
    30   6      3.997 --    31      1.008    29      1.007    93      0.977
                            92      0.977
    31   6      3.998 --    32      1.019    30      1.008    94      0.979
                            95      0.979
    32   6      3.997 --    31      1.019    96      0.988    98      0.988
                            97      0.988
    33   1      0.999 --     1      0.988
    34   1      0.999 --     1      0.988
    35   1      0.999 --     1      0.988
    36   1      0.999 --     2      0.979
    37   1      0.999 --     2      0.979
    38   1      0.999 --     3      0.977
    39   1      0.999 --     3      0.977
    40   1      0.999 --     4      0.978
    41   1      0.999 --     4      0.978
    42   1      0.999 --     5      0.977
    43   1      0.999 --     5      0.977
    44   1      0.999 --     6      0.977
    45   1      0.999 --     6      0.977
    46   1      0.999 --     7      0.977
    47   1      0.999 --     7      0.977
    48   1      0.999 --     8      0.977
    49   1      0.999 --     8      0.977
    50   1      0.999 --     9      0.977
    51   1      0.999 --     9      0.977
    52   1      0.999 --    10      0.977
    53   1      0.999 --    10      0.977
    54   1      0.999 --    11      0.977
    55   1      0.999 --    11      0.977
    56   1      0.999 --    12      0.977
    57   1      0.999 --    12      0.977
    58   1      0.999 --    13      0.977
    59   1      0.999 --    13      0.977
    60   1      0.999 --    14      0.977
    61   1      0.999 --    14      0.977
    62   1      0.999 --    15      0.977
    63   1      0.999 --    15      0.977
    64   1      0.999 --    16      0.977
    65   1      0.999 --    16      0.977
    66   1      0.999 --    17      0.977
    67   1      0.999 --    17      0.977
    68   1      0.999 --    18      0.977
    69   1      0.999 --    18      0.977
    70   1      0.999 --    19      0.977
    71   1      0.999 --    19      0.977
    72   1      0.999 --    20      0.977
    73   1      0.999 --    20      0.977
    74   1      0.999 --    21      0.977
    75   1      0.999 --    21      0.977
    76   1      0.999 --    22      0.977
    77   1      0.999 --    22      0.977
    78   1      0.999 --    23      0.977
    79   1      0.999 --    23      0.977
    80   1      0.999 --    24      0.977
    81   1      0.999 --    24      0.977
    82   1      0.999 --    25      0.977
    83   1      0.999 --    25      0.977
    84   1      0.999 --    26      0.977
    85   1      0.999 --    26      0.977
    86   1      0.999 --    27      0.977
    87   1      0.999 --    27      0.977
    88   1      0.999 --    28      0.977
    89   1      0.999 --    28      0.977
    90   1      0.999 --    29      0.978
    91   1      0.999 --    29      0.978
    92   1      0.999 --    30      0.977
    93   1      0.999 --    30      0.977
    94   1      0.999 --    31      0.979
    95   1      0.999 --    31      0.979
    96   1      0.999 --    32      0.988
    97   1      0.999 --    32      0.988
    98   1      0.999 --    32      0.988
 ---------------------------------------------------------------------------

Topologies differ in total number of bonds
Writing topology from bond orders to xtbtopo.mol

molecular dipole:
                 x           y           z       tot (Debye)
 q only:       -0.000      -0.000       0.000
   full:       -0.000      -0.000       0.000       0.000
molecular quadrupole (traceless):
                xx          xy          yy          xz          yz          zz
 q only:        2.369      -0.772      -1.538      -1.057       1.094      -0.832
  q+dip:       -6.244       2.593       5.113       3.564      -6.138       1.131
   full:       -2.260       0.987       2.033       1.359      -2.784       0.226

           -------------------------------------------------
          |               Frequency Printout                |
           -------------------------------------------------
 projected vibrational frequencies (cm⁻¹)
eigval :       -0.00    -0.00    -0.00     0.00     0.00     0.00
eigval :       -1.94     4.07     6.64    13.96    14.08    15.28
eigval :       24.83    28.37    30.37    36.88    45.85    46.88
eigval :       50.44    61.23    65.02    69.34    73.80    76.07
eigval :       80.13    90.47    95.19    95.43   104.30   109.62
eigval :      117.41   122.84   124.48   129.57   134.46   140.42
eigval :      144.29   146.22   149.64   152.03   156.46   156.52
eigval :      157.67   160.65   161.14   190.70   214.87   227.39
eigval :      233.85   233.86   262.48   282.05   300.49   338.40
eigval :      341.15   375.84   392.68   413.11   434.10   450.25
eigval :      466.68   483.87   493.02   509.44   513.01   525.13
eigval :      525.92   768.73   768.81   768.89   769.14   769.32
eigval :      769.47   770.35   772.16   774.95   778.94   784.33
eigval :      791.29   799.98   810.24   822.27   835.77   850.61
eigval :      866.62   883.27   900.58   918.04   935.37   941.02
eigval :      941.03   952.28   968.49   983.73   997.74  1010.24
eigval :     1020.96  1027.46  1028.02  1029.61  1033.49  1035.53
eigval :     1035.98  1039.84  1042.86  1047.07  1053.98  1061.22
eigval :     1065.92  1076.60  1077.51  1088.08  1092.16  1097.45
eigval :     1100.18  1101.56  1104.34  1105.12  1105.31  1108.50
eigval :     1110.40  1111.79  1114.15  1114.28  1116.09  1117.53
eigval :     1118.31  1118.31  1124.03  1137.19  1137.99  1197.77
eigval :     1199.09  1201.96  1204.74  1206.38  1211.97  1212.21
eigval :     1219.18  1221.20  1227.00  1231.20  1235.37  1241.47
eigval :     1243.98  1251.86  1252.57  1260.84  1262.31  1265.46
eigval :     1267.23  1268.90  1270.54  1272.79  1274.55  1275.69
eigval :     1279.18  1281.52  1283.28  1284.24  1286.54  1289.31
eigval :     1290.87  1293.66  1293.71  1294.65  1297.21  1297.69
eigval :     1299.70  1299.96  1301.19  1301.40  1303.99  1314.02
eigval :     1323.59  1332.89  1341.48  1349.33  1356.54  1362.73
eigval :     1368.17  1372.53  1375.91  1377.47  1378.01  1378.36
eigval :     1378.90  1379.72  1380.03  1380.47  1380.90  1380.98
eigval :     1416.21  1416.23  1494.71  1494.74  1495.00  1495.00
eigval :     1495.43  1495.46  1496.01  1496.07  1496.75  1496.75
eigval :     1497.52  1497.65  1498.33  1498.69  1499.18  1499.68
eigval :     1500.21  1500.47  1501.14  1501.42  1501.78  1502.09
eigval :     1502.44  1502.63  1502.76  1502.96  1504.27  1504.82
eigval :     1504.83  1505.49  1506.49  1507.20  1508.07  1508.08
eigval :     2952.72  2952.73  2952.95  2952.98  2953.06  2953.25
eigval :     2953.52  2953.88  2954.35  2954.91  2955.58  2956.33
eigval :     2957.21  2958.15  2959.23  2960.39  2961.65  2963.06
eigval :     2964.54  2966.13  2967.79  2969.51  2971.27  2971.40
eigval :     2971.42  2971.53  2971.54  2971.85  2971.86  2972.34
eigval :     2972.35  2972.97  2972.97  2973.06  2973.72  2973.75
eigval :     2974.63  2974.64  2974.86  2975.60  2975.71  2976.55
eigval :     2976.64  2976.91  2977.42  2977.87  2978.41  2978.43
eigval :     2979.90  2980.03  2981.52  2981.65  2982.90  2983.23
eigval :     2985.00  2986.79  2988.57  2990.22  2991.76  2992.92
eigval :     3029.49  3029.52  3031.95  3031.96  3037.32  3037.33
 reduced masses (amu)
    1:      4.31    2:      4.41    3:      3.97    4:      3.29    5:      2.33    6:      3.09
    7:      4.31    8:      4.32    9:      4.21   10:      2.02   11:      4.25   12:      2.42
   13:      3.83   14:      4.18   15:      1.53   16:      3.69   17:      1.54   18:      4.09
   19:      3.50   20:      1.55   21:      3.28   22:      3.99   23:      4.50   24:      1.58
   25:      3.06   26:      1.61   27:      2.83   28:      3.90   29:      1.66   30:      2.59
   31:      1.73   32:      2.37   33:      3.80   34:      1.82   35:      2.20   36:      1.91
   37:      2.09   38:      4.44   39:      1.98   40:      2.04   41:      3.70   42:      2.01
   43:      2.02   44:      2.03   45:      2.02   46:      3.62   47:      4.24   48:      3.60
   49:      1.12   50:      1.12   51:      3.46   52:      4.17   53:      3.37   54:      3.30
   55:      4.00   56:      3.26   57:      3.70   58:      3.28   59:      3.36   60:      3.38
   61:      3.19   62:      3.36   63:      3.14   64:      3.26   65:      3.13   66:      3.18
   67:      3.14   68:      1.06   69:      1.06   70:      1.06   71:      1.06   72:      1.07
   73:      1.05   74:      1.07   75:      1.08   76:      1.09   77:      1.10   78:      1.11
   79:      1.12   80:      1.14   81:      1.15   82:      1.17   83:      1.19   84:      1.20
   85:      1.21   86:      1.22   87:      1.22   88:      1.22   89:      1.21   90:      1.74
   91:      1.74   92:      1.20   93:      1.18   94:      1.16   95:      1.14   96:      1.11
   97:      1.08   98:      6.06   99:      5.80  100:      1.05  101:      5.87  102:      5.15
  103:      1.03  104:      1.01  105:      5.55  106:      4.54  107:      5.13  108:      4.09
  109:      4.70  110:      3.86  111:      4.19  112:      3.94  113:      3.54  114:      3.60
  115:      1.99  116:      2.06  117:      2.10  118:      3.27  119:      2.75  120:      2.38
  121:      2.25  122:      3.07  123:      2.80  124:      2.38  125:      2.52  126:      2.80
  127:      2.53  128:      2.57  129:      3.78  130:      2.78  131:      3.03  132:      2.05
  133:      1.99  134:      1.91  135:      1.18  136:      1.82  137:      1.23  138:      1.72
  139:      1.63  140:      1.26  141:      1.55  142:      1.27  143:      1.48  144:      1.27
  145:      1.42  146:      1.27  147:      1.37  148:      1.32  149:      1.27  150:      1.01
  151:      1.05  152:      1.22  153:      1.02  154:      1.27  155:      1.03  156:      1.21
  157:      1.06  158:      1.14  159:      1.27  160:      1.11  161:      1.10  162:      1.14
  163:      1.09  164:      1.16  165:      1.26  166:      1.10  167:      1.14  168:      1.11
  169:      1.13  170:      1.12  171:      1.12  172:      1.12  173:      1.28  174:      1.29
  175:      1.30  176:      1.32  177:      1.34  178:      1.36  179:      1.38  180:      1.41
  181:      1.44  182:      1.47  183:      1.51  184:      1.75  185:      1.74  186:      1.55
  187:      1.71  188:      1.67  189:      1.59  190:      1.66  191:      1.61  192:      1.63
  193:      1.23  194:      1.23  195:      1.09  196:      1.09  197:      1.09  198:      1.09
  199:      1.09  200:      1.09  201:      1.09  202:      1.09  203:      1.09  204:      1.10
  205:      1.10  206:      1.08  207:      1.10  208:      1.09  209:      1.10  210:      1.10
  211:      1.08  212:      1.10  213:      1.10  214:      1.09  215:      1.10  216:      1.10
  217:      1.11  218:      1.10  219:      1.11  220:      1.08  221:      1.07  222:      1.05
  223:      1.05  224:      1.07  225:      1.07  226:      1.07  227:      1.06  228:      1.06
  229:      1.09  230:      1.09  231:      1.09  232:      1.09  233:      1.09  234:      1.09
  235:      1.09  236:      1.09  237:      1.09  238:      1.09  239:      1.09  240:      1.09
  241:      1.10  242:      1.10  243:      1.10  244:      1.10  245:      1.10  246:      1.10
  247:      1.10  248:      1.10  249:      1.10  250:      1.10  251:      1.10  252:      1.05
  253:      1.05  254:      1.05  255:      1.05  256:      1.05  257:      1.05  258:      1.05
  259:      1.05  260:      1.05  261:      1.05  262:      1.10  263:      1.05  264:      1.05
  265:      1.05  266:      1.05  267:      1.10  268:      1.05  269:      1.05  270:      1.05
  271:      1.10  272:      1.05  273:      1.05  274:      1.04  275:      1.10  276:      1.05
  277:      1.05  278:      1.11  279:      1.05  280:      1.11  281:      1.11  282:      1.05
  283:      1.05  284:      1.05  285:      1.05  286:      1.05  287:      1.05  288:      1.05
  289:      1.09  290:      1.09  291:      1.09  292:      1.09  293:      1.03  294:      1.03
 IR intensities (km·mol⁻¹)
    1:      0.00    2:      0.02    3:      0.01    4:      0.02    5:      0.01    6:      0.01
    7:      0.00    8:      0.00    9:      0.00   10:      0.00   11:      0.00   12:      0.00
   13:      0.00   14:      0.01   15:      0.00   16:      0.00   17:      0.00   18:      0.00
   19:      0.00   20:      0.00   21:      0.00   22:      0.02   23:      0.00   24:      0.00
   25:      0.00   26:      0.00   27:      0.00   28:      0.00   29:      0.00   30:      0.00
   31:      0.00   32:      0.00   33:      0.03   34:      0.00   35:      0.00   36:      0.00
   37:      0.00   38:      0.00   39:      0.00   40:      0.00   41:      0.00   42:      0.00
   43:      0.00   44:      0.00   45:      0.00   46:      0.04   47:      0.00   48:      0.00
   49:      0.00   50:      0.00   51:      0.06   52:      0.01   53:      0.00   54:      0.07
   55:      0.00   56:      0.00   57:      0.06   58:      0.05   59:      0.00   60:      0.00
   61:      0.09   62:      0.01   63:      0.00   64:      0.00   65:      0.04   66:      0.00
   67:      0.00   68:      0.00   69:      1.25   70:     10.42   71:      0.00   72:      0.00
   73:     60.65   74:      3.50   75:      0.00   76:      1.70   77:      0.00   78:      1.14
   79:      0.00   80:      0.88   81:      0.00   82:      0.74   83:      0.00   84:      0.65
   85:      0.00   86:      0.56   87:      0.00   88:      0.45   89:      0.00   90:      7.12
   91:      0.00   92:      0.34   93:      0.00   94:      0.21   95:      0.00   96:      0.10
   97:      0.00   98:      0.00   99:      0.06  100:      0.01  101:      0.03  102:      0.00
  103:      0.00  104:      0.12  105:      0.00  106:      0.41  107:      0.07  108:      0.00
  109:      0.00  110:      0.84  111:      0.09  112:      0.00  113:      0.00  114:      0.06
  115:      0.00  116:      0.03  117:      0.00  118:      0.00  119:      0.54  120:      0.30
  121:      0.00  122:      0.29  123:      0.00  124:      0.15  125:      0.00  126:      0.06
  127:      0.00  128:      0.00  129:      0.00  130:      7.98  131:      0.00  132:      0.00
  133:      0.15  134:      0.00  135:     10.05  136:      0.20  137:      0.00  138:      0.00
  139:      0.18  140:      0.33  141:      0.00  142:      0.00  143:      0.12  144:      0.12
  145:      0.00  146:      0.00  147:      0.07  148:      0.00  149:      0.20  150:      0.00
  151:      0.00  152:      0.02  153:      0.00  154:      0.00  155:      0.03  156:      0.00
  157:      0.00  158:      0.00  159:      0.27  160:      0.03  161:      0.00  162:      0.00
  163:      0.02  164:      0.01  165:      0.00  166:      0.00  167:      0.00  168:      0.01
  169:      0.00  170:      0.00  171:      0.00  172:      0.00  173:      0.32  174:      0.00
  175:      0.34  176:      0.00  177:      0.33  178:      0.00  179:      0.30  180:      0.00
  181:      0.26  182:      0.00  183:      0.24  184:      0.00  185:      0.03  186:      0.00
  187:      0.00  188:      0.18  189:      0.07  190:      0.00  191:      0.00  192:      0.05
  193:      0.00  194:      1.69  195:      0.01  196:      0.00  197:      0.00  198:      0.00
  199:      0.05  200:      0.00  201:      0.00  202:      0.02  203:      0.08  204:      0.00
  205:      0.08  206:      0.00  207:      0.00  208:      0.02  209:      0.13  210:      0.00
  211:      0.00  212:      0.07  213:      0.00  214:      0.02  215:      0.13  216:      0.00
  217:      0.20  218:      0.00  219:      0.92  220:      0.00  221:      0.02  222:      4.83
  223:      0.00  224:      0.00  225:      0.02  226:      0.00  227:      2.38  228:      0.00
  229:      0.00  230:      0.01  231:      0.00  232:      0.01  233:      0.00  234:      0.01
  235:      0.00  236:      0.02  237:      0.00  238:      0.03  239:      0.00  240:      0.06
  241:      0.00  242:      0.11  243:      0.00  244:      0.24  245:      0.00  246:      0.56
  247:      0.00  248:      1.58  249:      0.00  250:      4.77  251:      0.00  252:      0.01
  253:      0.00  254:      0.00  255:      0.00  256:      0.00  257:      0.05  258:      0.00
  259:      0.04  260:      0.13  261:      0.00  262:     13.87  263:      0.00  264:      0.16
  265:      0.00  266:      0.04  267:      0.00  268:      0.26  269:      0.00  270:      0.28
  271:     39.66  272:      0.25  273:      0.08  274:      0.00  275:      0.00  276:      0.00
  277:      2.57  278:    120.26  279:      0.00  280:      0.00  281:   1364.13  282:     11.57
  283:      0.00  284:     34.13  285:      0.00  286:    106.63  287:      0.00  288:   1055.63
  289:    128.85  290:      0.00  291:    123.88  292:      0.01  293:     68.88  294:      0.00
 Raman intensities (Ä⁴*amu⁻¹)
    1:      0.00    2:      0.00    3:      0.00    4:      0.00    5:      0.00    6:      0.00
    7:      0.00    8:      0.00    9:      0.00   10:      0.00   11:      0.00   12:      0.00
   13:      0.00   14:      0.00   15:      0.00   16:      0.00   17:      0.00   18:      0.00
   19:      0.00   20:      0.00   21:      0.00   22:      0.00   23:      0.00   24:      0.00
   25:      0.00   26:      0.00   27:      0.00   28:      0.00   29:      0.00   30:      0.00
   31:      0.00   32:      0.00   33:      0.00   34:      0.00   35:      0.00   36:      0.00
   37:      0.00   38:      0.00   39:      0.00   40:      0.00   41:      0.00   42:      0.00
   43:      0.00   44:      0.00   45:      0.00   46:      0.00   47:      0.00   48:      0.00
   49:      0.00   50:      0.00   51:      0.00   52:      0.00   53:      0.00   54:      0.00
   55:      0.00   56:      0.00   57:      0.00   58:      0.00   59:      0.00   60:      0.00
   61:      0.00   62:      0.00   63:      0.00   64:      0.00   65:      0.00   66:      0.00
   67:      0.00   68:      0.00   69:      0.00   70:      0.00   71:      0.00   72:      0.00
   73:      0.00   74:      0.00   75:      0.00   76:      0.00   77:      0.00   78:      0.00
   79:      0.00   80:      0.00   81:      0.00   82:      0.00   83:      0.00   84:      0.00
   85:      0.00   86:      0.00   87:      0.00   88:      0.00   89:      0.00   90:      0.00
   91:      0.00   92:      0.00   93:      0.00   94:      0.00   95:      0.00   96:      0.00
   97:      0.00   98:      0.00   99:      0.00  100:      0.00  101:      0.00  102:      0.00
  103:      0.00  104:      0.00  105:      0.00  106:      0.00  107:      0.00  108:      0.00
Refinement of some symmetry elements was terminated before convergence was reached.
Some symmetry elements may remain unidentified.
Molecule has the following symmetry elements: (i) (C2) (sigma) 
It seems to be the C2h point group
  109:      0.00  110:      0.00  111:      0.00  112:      0.00  113:      0.00  114:      0.00
  115:      0.00  116:      0.00  117:      0.00  118:      0.00  119:      0.00  120:      0.00
  121:      0.00  122:      0.00  123:      0.00  124:      0.00  125:      0.00  126:      0.00
  127:      0.00  128:      0.00  129:      0.00  130:      0.00  131:      0.00  132:      0.00
  133:      0.00  134:      0.00  135:      0.00  136:      0.00  137:      0.00  138:      0.00
  139:      0.00  140:      0.00  141:      0.00  142:      0.00  143:      0.00  144:      0.00
  145:      0.00  146:      0.00  147:      0.00  148:      0.00  149:      0.00  150:      0.00
  151:      0.00  152:      0.00  153:      0.00  154:      0.00  155:      0.00  156:      0.00
  157:      0.00  158:      0.00  159:      0.00  160:      0.00  161:      0.00  162:      0.00
  163:      0.00  164:      0.00  165:      0.00  166:      0.00  167:      0.00  168:      0.00
  169:      0.00  170:      0.00  171:      0.00  172:      0.00  173:      0.00  174:      0.00
  175:      0.00  176:      0.00  177:      0.00  178:      0.00  179:      0.00  180:      0.00
  181:      0.00  182:      0.00  183:      0.00  184:      0.00  185:      0.00  186:      0.00
  187:      0.00  188:      0.00  189:      0.00  190:      0.00  191:      0.00  192:      0.00
  193:      0.00  194:      0.00  195:      0.00  196:      0.00  197:      0.00  198:      0.00
  199:      0.00  200:      0.00  201:      0.00  202:      0.00  203:      0.00  204:      0.00
  205:      0.00  206:      0.00  207:      0.00  208:      0.00  209:      0.00  210:      0.00
  211:      0.00  212:      0.00  213:      0.00  214:      0.00  215:      0.00  216:      0.00
  217:      0.00  218:      0.00  219:      0.00  220:      0.00  221:      0.00  222:      0.00
  223:      0.00  224:      0.00  225:      0.00  226:      0.00  227:      0.00  228:      0.00
  229:      0.00  230:      0.00  231:      0.00  232:      0.00  233:      0.00  234:      0.00
  235:      0.00  236:      0.00  237:      0.00  238:      0.00  239:      0.00  240:      0.00
  241:      0.00  242:      0.00  243:      0.00  244:      0.00  245:      0.00  246:      0.00
  247:      0.00  248:      0.00  249:      0.00  250:      0.00  251:      0.00  252:      0.00
  253:      0.00  254:      0.00  255:      0.00  256:      0.00  257:      0.00  258:      0.00
  259:      0.00  260:      0.00  261:      0.00  262:      0.00  263:      0.00  264:      0.00
  265:      0.00  266:      0.00  267:      0.00  268:      0.00  269:      0.00  270:      0.00
  271:      0.00  272:      0.00  273:      0.00  274:      0.00  275:      0.00  276:      0.00
  277:      0.00  278:      0.00  279:      0.00  280:      0.00  281:      0.00  282:      0.00
  283:      0.00  284:      0.00  285:      0.00  286:      0.00  287:      0.00  288:      0.00
  289:      0.00  290:      0.00  291:      0.00  292:      0.00  293:      0.00  294:      0.00
 output can be read by thermo (or use thermo option).
 writing <g98.out> molden fake output.
 recommended (thermochemical) frequency scaling factor: 1.0
           -------------------------------------------------
          |             Thermodynamic Functions             |
           -------------------------------------------------

c2h symmetry found (for desy threshold:  0.10E+00) used in thermo
 inverting freq            1   1.9418326789081253     

          ...................................................
          :                      SETUP                      :
          :.................................................:
          :  # frequencies                         288      :
          :  # imaginary freq.                       0      :
          :  linear?                             false      :
          :  only rotor calc.                    false      :
          :  symmetry                              c2h      :
          :  rotational number                       2      :
          :  scaling factor                  1.0000000      :
          :  rotor cutoff                   50.0000000 cm⁻¹ :
          :  imag. cutoff                  -20.0000000 cm⁻¹ :
          :.................................................:

    mode    ω/cm⁻¹     T·S(HO)/kcal·mol⁻¹    T·S(FR)/kcal·mol⁻¹   T·S(vib)
   ------------------------------------------------------------------------
       1      1.94    -3.35949 (  0.00%)    -2.01880 (100.00%)    -2.01880
       2      4.07    -2.92097 (  0.00%)    -1.79957 (100.00%)    -1.79962
       3      6.64    -2.63124 (  0.03%)    -1.65471 ( 99.97%)    -1.65501
       4     13.96    -2.19088 (  0.60%)    -1.43449 ( 99.40%)    -1.43906
       5     14.08    -2.18563 (  0.63%)    -1.43187 ( 99.37%)    -1.43658
       6     15.28    -2.13719 (  0.87%)    -1.40764 ( 99.13%)    -1.41395
       7     24.83    -1.84990 (  5.73%)    -1.26389 ( 94.27%)    -1.29749
       8     28.37    -1.77108 (  9.39%)    -1.22442 ( 90.61%)    -1.27576
       9     30.37    -1.73088 ( 11.97%)    -1.20429 ( 88.03%)    -1.26734
      10     36.88    -1.61590 ( 22.85%)    -1.14667 ( 77.15%)    -1.25388
      11     45.85    -1.48747 ( 41.41%)    -1.08225 ( 58.59%)    -1.25005
      12     46.88    -1.47429 ( 43.60%)    -1.07563 ( 56.40%)    -1.24942
      13     50.44    -1.43118 ( 50.87%)    -1.05397 ( 49.13%)    -1.24585
      14     61.23    -1.31695 ( 69.22%)    -0.99652 ( 30.78%)    -1.21833
      15     65.02    -1.28165 ( 74.09%)    -0.97873 ( 25.91%)    -1.20317
      16     69.34    -1.24384 ( 78.72%)    -0.95966 ( 21.28%)    -1.18337
      17     73.80    -1.20730 ( 82.60%)    -0.94121 ( 17.40%)    -1.16100
      18     76.07    -1.18952 ( 84.27%)    -0.93222 ( 15.73%)    -1.14906
      19     80.13    -1.15909 ( 86.84%)    -0.91682 ( 13.16%)    -1.12720
      20     90.47    -1.08824 ( 91.47%)    -0.88089 (  8.53%)    -1.07054
      21     95.19    -1.05855 ( 92.93%)    -0.86580 (  7.07%)    -1.04492
      22     95.43    -1.05711 ( 92.99%)    -0.86506 (  7.01%)    -1.04365
      23    104.30    -1.00546 ( 94.98%)    -0.83874 (  5.02%)    -0.99710
      24    109.62    -0.97665 ( 95.85%)    -0.82401 (  4.15%)    -0.97031
      25    117.41    -0.93696 ( 96.82%)    -0.80367 (  3.18%)    -0.93272
      26    122.84    -0.91092 ( 97.33%)    -0.79027 (  2.67%)    -0.90769
      27    124.48    -0.90326 ( 97.46%)    -0.78633 (  2.54%)    -0.90029
      28    129.57    -0.88028 ( 97.83%)    -0.77448 (  2.17%)    -0.87799
      29    134.46    -0.85906 ( 98.12%)    -0.76350 (  1.88%)    -0.85726
      30    140.42    -0.83426 ( 98.42%)    -0.75064 (  1.58%)    -0.83294
      31    144.29    -0.81878 ( 98.58%)    -0.74259 (  1.42%)    -0.81769
      32    146.22    -0.81121 ( 98.65%)    -0.73865 (  1.35%)    -0.81023
      33    149.64    -0.79808 ( 98.77%)    -0.73180 (  1.23%)    -0.79727
      34    152.03    -0.78911 ( 98.84%)    -0.72712 (  1.16%)    -0.78839
      35    156.46    -0.77285 ( 98.97%)    -0.71860 (  1.03%)    -0.77229
      36    156.52    -0.77264 ( 98.97%)    -0.71849 (  1.03%)    -0.77208
      37    157.67    -0.76849 ( 99.00%)    -0.71632 (  1.00%)    -0.76797
      38    160.65    -0.75793 ( 99.07%)    -0.71077 (  0.93%)    -0.75749
      39    161.14    -0.75622 ( 99.08%)    -0.70988 (  0.92%)    -0.75580
      40    190.70    -0.66219 ( 99.53%)    -0.65997 (  0.47%)    -0.66217
      41    214.87    -0.59688 ( 99.71%)    -0.62463 (  0.29%)    -0.59696
      42    227.39    -0.56632 ( 99.77%)    -0.60785 (  0.23%)    -0.56642
      43    233.85    -0.55133 ( 99.79%)    -0.59955 (  0.21%)    -0.55143
      44    233.86    -0.55132 ( 99.79%)    -0.59954 (  0.21%)    -0.55142
      45    262.48    -0.49051 ( 99.87%)    -0.56533 (  0.13%)    -0.49061
      46    282.05    -0.45355 ( 99.90%)    -0.54404 (  0.10%)    -0.45364
   ------------------------------------------------------------------------

   temp. (K)  partition function   enthalpy   heat capacity  entropy
                                   cal/mol     cal/K/mol   cal/K/mol   J/K/mol
 298.15  VIB  0.487E+27            25979.671    135.791    180.340
         ROT  0.331E+08              888.727      2.981     37.390
Note: The following floating-point exceptions are signalling: IEEE_UNDERFLOW_FLAG
normal termination of xtb
         INT  0.161E+35            26868.399    138.772    217.730
         TR   0.293E+27             1481.212      4.968     44.207
         TOT                       28349.6111   143.7399   261.9371  1095.9447

       T/K    H(0)-H(T)+PV         H(T)/Eh          T*S/Eh         G(T)/Eh
   ------------------------------------------------------------------------
    298.15    0.451780E-01    0.964062E+00    0.124455E+00    0.839607E+00
   ------------------------------------------------------------------------

         :::::::::::::::::::::::::::::::::::::::::::::::::::::
         ::                  THERMODYNAMIC                  ::
         :::::::::::::::::::::::::::::::::::::::::::::::::::::
         :: total free energy        -101.428804852484 Eh   ::
         ::.................................................::
         :: total energy             -102.268411868801 Eh   ::
         :: zero point energy           0.918883791686 Eh   ::
         :: G(RRHO) w/o ZPVE           -0.079276775369 Eh   ::
         :: G(RRHO) contrib.            0.839607016317 Eh   ::
         :::::::::::::::::::::::::::::::::::::::::::::::::::::

           -------------------------------------------------
          | TOTAL ENERGY             -102.268411868801 Eh   |
          | TOTAL ENTHALPY           -101.304350096057 Eh   |
          | TOTAL FREE ENERGY        -101.428804852484 Eh   |
          | GRADIENT NORM               0.000267744890 Eh/α |
          | HOMO-LUMO GAP              11.586857461118 eV   |
           -------------------------------------------------

------------------------------------------------------------------------
 * finished run on 2026/08/28 at 19:29:56.905     
------------------------------------------------------------------------
 total:
 * wall-time:     0 d,  0 h,  1 min, 45.829 sec
 *  cpu-time:     0 d,  0 h,  1 min, 45.785 sec
 * ratio c/w:     1.000 speedup
 SCF:
 * wall-time:     0 d,  0 h,  0 min,  0.289 sec
 *  cpu-time:     0 d,  0 h,  0 min,  0.289 sec
 * ratio c/w:     0.999 speedup
 analytical hessian:
 * wall-time:     0 d,  0 h,  1 min, 45.301 sec
 *  cpu-time:     0 d,  0 h,  1 min, 45.257 sec
 * ratio c/w:     1.000 speedup

