      -----------------------------------------------------------      
     |                   =====================                   |     
     |                           x T B                           |     
     |                   =====================                   |     
     |                         S. Grimme                         |     
     |          Mulliken Center for Theoretical Chemistry        |     
     |                    University of Bonn                     |     
      -----------------------------------------------------------      

   * xtb version 6.7.1 (unknown) compiled by 'root@buildkitsandbox' on 2026-08-28

   xtb is free software: you can redistribute it and/or modify it under
   the terms of the GNU Lesser General Public License as published by
   the Free Software Foundation, either version 3 of the License, or
   (at your option) any later version.
   
   xtb is distributed in the hope that it will be useful,
   but WITHOUT ANY WARRANTY; without even the implied warranty of
   MERCHANTABILITY or FITNESS FOR A PARTICULAR PURPOSE.  See the
   GNU Lesser General Public License for more details.
   
   Cite this work as:
   * C. Bannwarth, E. Caldeweyher, S. Ehlert, A. Hansen, P. Pracht,
     J. Seibert, S. Spicher, S. Grimme, WIREs Comput. Mol. Sci., 2020, 11,
     e01493. DOI: 10.1002/wcms.1493
   
   for GFN2-xTB:
   * C. Bannwarth, S. Ehlert and S. Grimme., J. Chem. Theory Comput., 2019,
     15, 1652-1671. DOI: 10.1021/acs.jctc.8b01176
   for GFN1-xTB:
   * S. Grimme, C. Bannwarth, P. Shushkov, J. Chem. Theory Comput., 2017,
     13, 1989-2009. DOI: 10.1021/acs.jctc.7b00118
   for GFN0-xTB:
   * P. Pracht, E. Caldeweyher, S. Ehlert, S. Grimme, ChemRxiv, 2019, preprint.
     DOI: 10.26434/chemrxiv.8326202.v1
   for GFN-FF:
   * S. Spicher and S. Grimme, Angew. Chem. Int. Ed., 2020, 59, 15665-15673.
     DOI: 10.1002/anie.202004239
   
   for ALPB and GBSA implicit solvation:
   * S. Ehlert, M. Stahn, S. Spicher, S. Grimme, J. Chem. Theory Comput.,
     2021, 17, 4250-4261. DOI: 10.1021/acs.jctc.1c00471
   
   for ddCOSMO and CPCM-X implicit solvation:
   * M. Stahn, S. Ehlert, S. Grimme, J. Phys. Chem. A,
     2023, XX, XXXX-XXXX. DOI: 10.1021/acs.jpca.3c04382
   
   for DFT-D4:
   * E. Caldeweyher, C. Bannwarth and S. Grimme, J. Chem. Phys., 2017,
     147, 034112. DOI: 10.1063/1.4993215
   * E. Caldeweyher, S. Ehlert, A. Hansen, H. Neugebauer, S. Spicher,
     C. Bannwarth and S. Grimme, J. Chem. Phys., 2019, 150, 154122.
     DOI: 10.1063/1.5090222
   * E. Caldeweyher, J.-M. Mewes, S. Ehlert and S. Grimme, Phys. Chem. Chem. Phys.
     2020, 22, 8499-8512. DOI: 10.1039/D0CP00502A
   
   for sTDA-xTB:
   * S. Grimme and C. Bannwarth, J. Chem. Phys., 2016, 145, 054103.
     DOI: 10.1063/1.4959605
   
   in the mass-spec context:
   * V. Asgeirsson, C. Bauer and S. Grimme, Chem. Sci., 2017, 8, 4879.
     DOI: 10.1039/c7sc00601b
   * J. Koopman and S. Grimme, ACS Omega 2019, 4, 12, 15120-15133.
     DOI: 10.1021/acsomega.9b02011
   
   for metadynamics refer to:
   * S. Grimme, J. Chem. Theory Comput., 2019, 155, 2847-2862
     DOI: 10.1021/acs.jctc.9b00143
   
   for SPH calculations refer to:
   * S. Spicher and S. Grimme, J. Chem. Theory Comput., 2021, 17, 1701-1714
     DOI: 10.1021/acs.jctc.0c01306
   
   for ONIOM refer to:
   * C. Plett, A. Katbashev, S. Ehlert, S. Grimme, M. Bursch,
     Phys. Chem. Chem. Phys., 2023, 25, 17860-17868. DOI: 10.1039/D3CP02178E
   
   for DIPRO refer to:
   * J. Kohn, N. Gildemeister, S. Grimme, D. Fazzi, A. Hansen,
     J. Chem. Phys. 159, 144106 (2023). DOI: 10.1063/5.0167484
   
   for PTB refer to:
   * S. Grimme, M. Mueller, A. Hansen, J. Chem. Phys., 2023, 158, 124111.
     DOI: 10.1063/5.0137838
   
   with help from (in alphabetical order)
   P. Atkinson, C. Bannwarth, F. Bohle, G. Brandenburg, E. Caldeweyher,
   M. Checinski, S. Dohm, S. Ehlert, S. Ehrlich, M. Friede, T. Froitzheim,
   I. Gerasimov, C. Hölzer, A. Katbashev, J. Kohn, J. Koopman, C. Lavigne,
   S. Lehtola, F. März, M. Müller, F. Musil, H. Neugebauer, J. Pisarek,
   C. Plett, P. Pracht, F. Pultar, J. Seibert, P. Shushkov, S. Spicher,
   M. Stahn, M. Steiner, T. Strunk, J. Stückrath, T. Rose, and J. Unsleber
   
 * started run on 2026/08/28 at 19:09:40.297     
   ID    Z sym.   atoms
    1    6 C      1, 2, 5-11
    2    8 O      3, 4, 12, 13
    3    1 H      14-21

           -------------------------------------------------
          |                Calculation Setup                |
           -------------------------------------------------

          program call               : xtb in.xyz --gfn 2 --grad --norestart
          hostname                   : 756d39058c4f
          coordinate file            : in.xyz
          random seed                :             959369119


           -------------------------------------------------
          |                 G F N 2 - x T B                 |
           -------------------------------------------------

        Reference                      10.1021/acs.jctc.8b01176
      * Hamiltonian:
        H0-scaling (s, p, d)           1.850000    2.230000    2.230000
        zeta-weighting                 0.500000
      * Dispersion:
        s8                             2.700000
        a1                             0.520000
        a2                             5.000000
        s9                             5.000000
      * Repulsion:
        kExp                           1.500000    1.000000
        rExp                           1.000000
      * Coulomb:
        alpha                          2.000000
        third order                    shell-resolved
        anisotropic                    true
        a3                             3.000000
        a5                             4.000000
        cn-shift                       1.200000
        cn-exp                         4.000000
        max-rad                        5.000000


          ...................................................
          :                      SETUP                      :
          :.................................................:
          :  # basis functions                  60          :
          :  # atomic orbitals                  60          :
          :  # shells                           34          :
          :  # electrons                        68          :
          :  max. iterations                   250          :
          :  Hamiltonian                  GFN2-xTB          :
          :  restarted?                      false          :
          :  GBSA solvation                  false          :
          :  PC potential                    false          :
          :  electronic temp.          300.0000000     K    :
          :  accuracy                    1.0000000          :
          :  -> integral cutoff          0.2500000E+02      :
          :  -> integral neglect         0.1000000E-07      :
          :  -> SCF convergence          0.1000000E-05 Eh   :
          :  -> wf. convergence          0.1000000E-03 e    :
          :  Broyden damping             0.4000000          :
          :  net charge                          0          :
          :  unpaired electrons                  0          :
          ...................................................

 iter      E             dE          RMSdq      gap      omega  full diag
   1    -39.9873053 -0.399873E+02  0.532E+00    4.33       0.0  T
   2    -40.0558879 -0.685826E-01  0.293E+00    3.44       1.0  T
   3    -40.0562898 -0.401931E-03  0.160E+00    3.97       1.0  T
   4    -40.0678750 -0.115852E-01  0.269E-01    3.64       1.0  T
   5    -40.0686312 -0.756145E-03  0.104E-01    3.70       1.0  T
   6    -40.0687261 -0.949050E-04  0.447E-02    3.73       1.0  T
   7    -40.0687316 -0.550587E-05  0.155E-02    3.72       1.4  T
   8    -40.0687326 -0.103888E-05  0.654E-03    3.72       3.3  T
   9    -40.0687329 -0.251204E-06  0.213E-03    3.72      10.3  T
  10    -40.0687329 -0.228614E-07  0.103E-03    3.72      21.2  T
  11    -40.0687329 -0.725830E-08  0.477E-04    3.72      45.7  T
  12    -40.0687329 -0.117069E-08  0.173E-04    3.72     126.1  T

   *** convergence criteria satisfied after 12 iterations ***

         #    Occupation            Energy/Eh            Energy/eV
      -------------------------------------------------------------
         1        2.0000           -0.7676303             -20.8883
       ...           ...                  ...                  ...
        28        2.0000           -0.4711966             -12.8219
        29        2.0000           -0.4670783             -12.7098
        30        2.0000           -0.4601868             -12.5223
        31        2.0000           -0.4541909             -12.3592
        32        2.0000           -0.4353780             -11.8472
        33        2.0000           -0.4314875             -11.7414
        34        2.0000           -0.4145847             -11.2814 (HOMO)
        35                         -0.2778615              -7.5610 (LUMO)
        36                         -0.2684938              -7.3061
        37                         -0.2588649              -7.0441
        38                         -0.2331163              -6.3434
        39                         -0.1344221              -3.6578
       ...                                ...                  ...
        60                          0.6106975              16.6179
      -------------------------------------------------------------
                  HL-Gap            0.1367232 Eh            3.7204 eV
             Fermi-level           -0.3462231 Eh           -9.4212 eV

 SCC (total)                   0 d,  0 h,  0 min,  0.050 sec
 SCC setup                      ...        0 min,  0.000 sec (  0.238%)
 Dispersion                     ...        0 min,  0.000 sec (  0.153%)
 classical contributions        ...        0 min,  0.000 sec (  0.025%)
 integral evaluation            ...        0 min,  0.012 sec ( 24.302%)
 iterations                     ...        0 min,  0.032 sec ( 64.212%)
 molecular gradient             ...        0 min,  0.005 sec ( 10.659%)
 printout                       ...        0 min,  0.000 sec (  0.371%)

         :::::::::::::::::::::::::::::::::::::::::::::::::::::
         ::                     SUMMARY                     ::
         :::::::::::::::::::::::::::::::::::::::::::::::::::::
         :: total energy             -39.614087317600 Eh    ::
         :: gradient norm              0.083572608861 Eh/a0 ::
         :: HOMO-LUMO gap              3.720428143174 eV    ::
         ::.................................................::
         :: SCC energy               -40.068633806008 Eh    ::
         :: -> isotropic ES            0.091787558982 Eh    ::
         :: -> anisotropic ES          0.000396896703 Eh    ::
         :: -> anisotropic XC          0.008217610981 Eh    ::
         :: -> dispersion             -0.019277821335 Eh    ::
         :: repulsion energy           0.454546488408 Eh    ::
         :: add. restraining           0.000000000000 Eh    ::
         :: total charge               0.000000000000 e     ::
         :::::::::::::::::::::::::::::::::::::::::::::::::::::

           -------------------------------------------------
          |                Property Printout                |
           -------------------------------------------------

    * Orbital Energies and Occupations

         #    Occupation            Energy/Eh            Energy/eV
      -------------------------------------------------------------
         1        2.0000           -0.7676303             -20.8883
       ...           ...                  ...                  ...
        22        2.0000           -0.5144631             -13.9993
        23        2.0000           -0.5098634             -13.8741
        24        2.0000           -0.5055159             -13.7558
        25        2.0000           -0.5029336             -13.6855
        26        2.0000           -0.4990172             -13.5789
        27        2.0000           -0.4859602             -13.2236
        28        2.0000           -0.4711966             -12.8219
        29        2.0000           -0.4670783             -12.7098
        30        2.0000           -0.4601868             -12.5223
        31        2.0000           -0.4541909             -12.3592
        32        2.0000           -0.4353780             -11.8472
        33        2.0000           -0.4314875             -11.7414
        34        2.0000           -0.4145847             -11.2814 (HOMO)
        35                         -0.2778615              -7.5610 (LUMO)
        36                         -0.2684938              -7.3061
        37                         -0.2588649              -7.0441
        38                         -0.2331163              -6.3434
        39                         -0.1344221              -3.6578
        40                         -0.0048620              -0.1323
        41                          0.0753131               2.0494
        42                          0.0811738               2.2089
        43                          0.0879818               2.3941
        44                          0.1177923               3.2053
        45                          0.1244643               3.3868
       ...                                ...                  ...
        60                          0.6106975              16.6179
      -------------------------------------------------------------
                  HL-Gap            0.1367232 Eh            3.7204 eV
             Fermi-level           -0.3462231 Eh           -9.4212 eV

     #   Z          covCN         q      C6AA      α(0)
     1   6          3.751    -0.145    23.362     6.893
     2   6          2.730     0.363    20.844     7.474
     3   8          0.856    -0.413    21.947     6.281
     4   8          1.705    -0.262    18.350     5.784
     5   6          2.886     0.144    24.870     8.176
     6   6          2.911    -0.040    28.996     8.830
     7   6          2.912    -0.025    28.617     8.772
     8   6          2.911    -0.027    28.667     8.780
     9   6          2.918    -0.020    28.512     8.756
    10   6          2.966    -0.035    28.857     8.811
    11   6          2.698     0.366    20.791     7.463
    12   8          0.857    -0.374    21.168     6.169
    13   8          1.657    -0.382    20.503     6.113
    14   1          0.924     0.085     1.925     2.170
    15   1          0.924     0.101     1.775     2.083
    16   1          0.924     0.083     1.947     2.182
    17   1          0.925     0.059     2.208     2.324
    18   1          0.925     0.055     2.257     2.349
    19   1          0.925     0.056     2.245     2.343
    20   1          0.925     0.063     2.160     2.298
    21   1          0.802     0.347     0.597     1.214

 Mol. C6AA /au·bohr⁶  :       5544.512986
 Mol. C8AA /au·bohr⁸  :     132486.394185
 Mol. α(0) /au        :        115.264339


Wiberg/Mayer (AO) data.
largest (>0.10) Wiberg bond orders for each atom

 ---------------------------------------------------------------------------
     #   Z sym  total        # sym  WBO       # sym  WBO       # sym  WBO
 ---------------------------------------------------------------------------
     1   6      3.986 --     2      1.010    14      0.973    16      0.973
                            15      0.944
     2   6      3.907 --     3      1.729     4      1.090     1      1.010
     3   8      2.048 --     2      1.729     4      0.165
     4   8      2.319 --     2      1.090     5      0.961     3      0.165
     5   6      3.922 --     6      1.399    10      1.370     4      0.961
                             8      0.104
     6   6      3.988 --     7      1.442     5      1.399    17      0.967
                             9      0.112
     7   6      3.989 --     6      1.442     8      1.435    18      0.969
                            10      0.106
     8   6      3.989 --     9      1.444     7      1.435    19      0.968
                             5      0.104
     9   6      3.986 --     8      1.444    10      1.394    20      0.967
                             6      0.112
    10   6      3.988 --     9      1.394     5      1.370    11      0.975
                             7      0.106
Note: The following floating-point exceptions are signalling: IEEE_UNDERFLOW_FLAG
normal termination of xtb
    11   6      3.926 --    12      1.769    13      1.142    10      0.975
    12   8      2.062 --    11      1.769    13      0.177
    13   8      2.213 --    11      1.142    21      0.819    12      0.177
    14   1      0.992 --     1      0.973
    15   1      0.990 --     1      0.944
    16   1      0.993 --     1      0.973
    17   1      0.996 --     6      0.967
    18   1      0.996 --     7      0.969
    19   1      0.996 --     8      0.968
    20   1      0.996 --     9      0.967
    21   1      0.880 --    13      0.819
 ---------------------------------------------------------------------------

Topologies differ in total number of bonds
Writing topology from bond orders to xtbtopo.mol

molecular dipole:
                 x           y           z       tot (Debye)
 q only:        0.274       0.418      -1.713
   full:        0.259       0.499      -2.027       5.348
molecular quadrupole (traceless):
                xx          xy          yy          xz          yz          zz
 q only:       22.284       9.141      -4.609     -15.260       3.171     -17.676
  q+dip:       23.595      11.954      -6.573     -18.484       3.772     -17.022
   full:       22.974      11.336      -4.505     -18.325       3.656     -18.469


           -------------------------------------------------
          | TOTAL ENERGY              -39.614087317600 Eh   |
          | GRADIENT NORM               0.083572608861 Eh/α |
          | HOMO-LUMO GAP               3.720428143174 eV   |
           -------------------------------------------------

------------------------------------------------------------------------
 * finished run on 2026/08/28 at 19:09:40.375     
------------------------------------------------------------------------
 total:
 * wall-time:     0 d,  0 h,  0 min,  0.077 sec
 *  cpu-time:     0 d,  0 h,  0 min,  0.040 sec
 * ratio c/w:     0.523 speedup
 SCF:
 * wall-time:     0 d,  0 h,  0 min,  0.050 sec
 *  cpu-time:     0 d,  0 h,  0 min,  0.032 sec
 * ratio c/w:     0.640 speedup

