      -----------------------------------------------------------      
     |                   =====================                   |     
     |                           x T B                           |     
     |                   =====================                   |     
     |                         S. Grimme                         |     
     |          Mulliken Center for Theoretical Chemistry        |     
     |                    University of Bonn                     |     
      -----------------------------------------------------------      

   * xtb version 6.7.1 (unknown) compiled by 'root@buildkitsandbox' on 2026-08-28

   xtb is free software: you can redistribute it and/or modify it under
   the terms of the GNU Lesser General Public License as published by
   the Free Software Foundation, either version 3 of the License, or
   (at your option) any later version.
   
   xtb is distributed in the hope that it will be useful,
   but WITHOUT ANY WARRANTY; without even the implied warranty of
   MERCHANTABILITY or FITNESS FOR A PARTICULAR PURPOSE.  See the
   GNU Lesser General Public License for more details.
   
   Cite this work as:
   * C. Bannwarth, E. Caldeweyher, S. Ehlert, A. Hansen, P. Pracht,
     J. Seibert, S. Spicher, S. Grimme, WIREs Comput. Mol. Sci., 2020, 11,
     e01493. DOI: 10.1002/wcms.1493
   
   for GFN2-xTB:
   * C. Bannwarth, S. Ehlert and S. Grimme., J. Chem. Theory Comput., 2019,
     15, 1652-1671. DOI: 10.1021/acs.jctc.8b01176
   for GFN1-xTB:
   * S. Grimme, C. Bannwarth, P. Shushkov, J. Chem. Theory Comput., 2017,
     13, 1989-2009. DOI: 10.1021/acs.jctc.7b00118
   for GFN0-xTB:
   * P. Pracht, E. Caldeweyher, S. Ehlert, S. Grimme, ChemRxiv, 2019, preprint.
     DOI: 10.26434/chemrxiv.8326202.v1
   for GFN-FF:
   * S. Spicher and S. Grimme, Angew. Chem. Int. Ed., 2020, 59, 15665-15673.
     DOI: 10.1002/anie.202004239
   
   for ALPB and GBSA implicit solvation:
   * S. Ehlert, M. Stahn, S. Spicher, S. Grimme, J. Chem. Theory Comput.,
     2021, 17, 4250-4261. DOI: 10.1021/acs.jctc.1c00471
   
   for ddCOSMO and CPCM-X implicit solvation:
   * M. Stahn, S. Ehlert, S. Grimme, J. Phys. Chem. A,
     2023, XX, XXXX-XXXX. DOI: 10.1021/acs.jpca.3c04382
   
   for DFT-D4:
   * E. Caldeweyher, C. Bannwarth and S. Grimme, J. Chem. Phys., 2017,
     147, 034112. DOI: 10.1063/1.4993215
   * E. Caldeweyher, S. Ehlert, A. Hansen, H. Neugebauer, S. Spicher,
     C. Bannwarth and S. Grimme, J. Chem. Phys., 2019, 150, 154122.
     DOI: 10.1063/1.5090222
   * E. Caldeweyher, J.-M. Mewes, S. Ehlert and S. Grimme, Phys. Chem. Chem. Phys.
     2020, 22, 8499-8512. DOI: 10.1039/D0CP00502A
   
   for sTDA-xTB:
   * S. Grimme and C. Bannwarth, J. Chem. Phys., 2016, 145, 054103.
     DOI: 10.1063/1.4959605
   
   in the mass-spec context:
   * V. Asgeirsson, C. Bauer and S. Grimme, Chem. Sci., 2017, 8, 4879.
     DOI: 10.1039/c7sc00601b
   * J. Koopman and S. Grimme, ACS Omega 2019, 4, 12, 15120-15133.
     DOI: 10.1021/acsomega.9b02011
   
   for metadynamics refer to:
   * S. Grimme, J. Chem. Theory Comput., 2019, 155, 2847-2862
     DOI: 10.1021/acs.jctc.9b00143
   
   for SPH calculations refer to:
   * S. Spicher and S. Grimme, J. Chem. Theory Comput., 2021, 17, 1701-1714
     DOI: 10.1021/acs.jctc.0c01306
   
   for ONIOM refer to:
   * C. Plett, A. Katbashev, S. Ehlert, S. Grimme, M. Bursch,
     Phys. Chem. Chem. Phys., 2023, 25, 17860-17868. DOI: 10.1039/D3CP02178E
   
   for DIPRO refer to:
   * J. Kohn, N. Gildemeister, S. Grimme, D. Fazzi, A. Hansen,
     J. Chem. Phys. 159, 144106 (2023). DOI: 10.1063/5.0167484
   
   for PTB refer to:
   * S. Grimme, M. Mueller, A. Hansen, J. Chem. Phys., 2023, 158, 124111.
     DOI: 10.1063/5.0137838
   
   with help from (in alphabetical order)
   P. Atkinson, C. Bannwarth, F. Bohle, G. Brandenburg, E. Caldeweyher,
   M. Checinski, S. Dohm, S. Ehlert, S. Ehrlich, M. Friede, T. Froitzheim,
   I. Gerasimov, C. Hölzer, A. Katbashev, J. Kohn, J. Koopman, C. Lavigne,
   S. Lehtola, F. März, M. Müller, F. Musil, H. Neugebauer, J. Pisarek,
   C. Plett, P. Pracht, F. Pultar, J. Seibert, P. Shushkov, S. Spicher,
   M. Stahn, M. Steiner, T. Strunk, J. Stückrath, T. Rose, and J. Unsleber
   
 * started run on 2026/08/28 at 19:12:07.844     
   ID    Z sym.   atoms
    1    6 C      1, 2, 5-11
    2    8 O      3, 4, 12, 13
    3    1 H      14-21

           -------------------------------------------------
          |                Calculation Setup                |
           -------------------------------------------------

          program call               : xtb opt.xyz --gfn 2 --hess --norestart
          hostname                   : 756d39058c4f
          coordinate file            : opt.xyz
          random seed                :             597816229


           -------------------------------------------------
          |                 G F N 2 - x T B                 |
           -------------------------------------------------

        Reference                      10.1021/acs.jctc.8b01176
      * Hamiltonian:
        H0-scaling (s, p, d)           1.850000    2.230000    2.230000
        zeta-weighting                 0.500000
      * Dispersion:
        s8                             2.700000
        a1                             0.520000
        a2                             5.000000
        s9                             5.000000
      * Repulsion:
        kExp                           1.500000    1.000000
        rExp                           1.000000
      * Coulomb:
        alpha                          2.000000
        third order                    shell-resolved
        anisotropic                    true
        a3                             3.000000
        a5                             4.000000
        cn-shift                       1.200000
        cn-exp                         4.000000
        max-rad                        5.000000


          ...................................................
          :                      SETUP                      :
          :.................................................:
          :  # basis functions                  60          :
          :  # atomic orbitals                  60          :
          :  # shells                           34          :
          :  # electrons                        68          :
          :  max. iterations                   250          :
          :  Hamiltonian                  GFN2-xTB          :
          :  restarted?                      false          :
          :  GBSA solvation                  false          :
          :  PC potential                    false          :
          :  electronic temp.          300.0000000     K    :
          :  accuracy                    1.0000000          :
          :  -> integral cutoff          0.2500000E+02      :
          :  -> integral neglect         0.1000000E-07      :
          :  -> SCF convergence          0.1000000E-05 Eh   :
          :  -> wf. convergence          0.1000000E-03 e    :
          :  Broyden damping             0.4000000          :
          :  net charge                          0          :
          :  unpaired electrons                  0          :
          ...................................................

 iter      E             dE          RMSdq      gap      omega  full diag
   1    -40.0307982 -0.400308E+02  0.529E+00    4.39       0.0  T
   2    -40.0999864 -0.691882E-01  0.294E+00    3.75       1.0  T
   3    -40.1005260 -0.539624E-03  0.153E+00    4.03       1.0  T
   4    -40.1097575 -0.923148E-02  0.272E-01    3.93       1.0  T
   5    -40.1105248 -0.767252E-03  0.985E-02    3.96       1.0  T
   6    -40.1105950 -0.702106E-04  0.427E-02    3.98       1.0  T
   7    -40.1105996 -0.456433E-05  0.134E-02    3.97       1.6  T
   8    -40.1106005 -0.925941E-06  0.580E-03    3.97       3.8  T
   9    -40.1106007 -0.218983E-06  0.201E-03    3.97      10.9  T
  10    -40.1106007 -0.243370E-07  0.862E-04    3.97      25.3  T
  11    -40.1106007 -0.407687E-08  0.423E-04    3.97      51.5  T

   *** convergence criteria satisfied after 11 iterations ***

         #    Occupation            Energy/Eh            Energy/eV
      -------------------------------------------------------------
         1        2.0000           -0.7735737             -21.0500
       ...           ...                  ...                  ...
        28        2.0000           -0.4736701             -12.8892
        29        2.0000           -0.4675856             -12.7237
        30        2.0000           -0.4588770             -12.4867
        31        2.0000           -0.4504190             -12.2565
        32        2.0000           -0.4370190             -11.8919
        33        2.0000           -0.4316344             -11.7454
        34        2.0000           -0.4151097             -11.2957 (HOMO)
        35                         -0.2692185              -7.3258 (LUMO)
        36                         -0.2618913              -7.1264
        37                         -0.2509274              -6.8281
        38                         -0.2263667              -6.1598
        39                         -0.1264811              -3.4417
       ...                                ...                  ...
        60                          0.6453240              17.5602
      -------------------------------------------------------------
                  HL-Gap            0.1458911 Eh            3.9699 eV
             Fermi-level           -0.3421641 Eh           -9.3108 eV

 SCC (total)                   0 d,  0 h,  0 min,  0.029 sec
 SCC setup                      ...        0 min,  0.000 sec (  0.285%)
 Dispersion                     ...        0 min,  0.000 sec (  0.468%)
 classical contributions        ...        0 min,  0.000 sec (  0.042%)
 integral evaluation            ...        0 min,  0.002 sec (  5.467%)
 iterations                     ...        0 min,  0.022 sec ( 77.633%)
 molecular gradient             ...        0 min,  0.004 sec ( 15.483%)
 printout                       ...        0 min,  0.000 sec (  0.587%)

         :::::::::::::::::::::::::::::::::::::::::::::::::::::
         ::                     SUMMARY                     ::
         :::::::::::::::::::::::::::::::::::::::::::::::::::::
         :: total energy             -39.622405836401 Eh    ::
         :: gradient norm              0.000302961448 Eh/a0 ::
         :: HOMO-LUMO gap              3.969899933887 eV    ::
         ::.................................................::
         :: SCC energy               -40.110506453538 Eh    ::
         :: -> isotropic ES            0.091402477637 Eh    ::
         :: -> anisotropic ES         -0.000081737444 Eh    ::
         :: -> anisotropic XC          0.006534741703 Eh    ::
         :: -> dispersion             -0.019169047029 Eh    ::
         :: repulsion energy           0.488100617137 Eh    ::
         :: add. restraining           0.000000000000 Eh    ::
         :: total charge              -0.000000000000 e     ::
         :::::::::::::::::::::::::::::::::::::::::::::::::::::

           ------------------------------------------------- 
          |                Numerical Hessian                |
           ------------------------------------------------- 
step length          :   0.00500
SCC accuracy         :   0.30000
Hessian scale factor :   1.00000
frozen atoms in %    :   0.00000    0
RMS gradient         :   0.00030
estimated CPU  time      0.05 min
estimated wall time      0.05 min

writing file <hessian>, containing the non-mass-weighted Hessian matrix in atomic units (Eₕ/Bohr²).

 projected vibrational frequencies (cm⁻¹)
eigval :       -0.00    -0.00    -0.00     0.00     0.00     0.00
eigval :       42.82    46.39    76.72    81.97    97.04   144.61
eigval :      210.07   229.76   290.31   328.45   354.77   435.97
eigval :      473.82   516.02   555.03   579.12   603.22   643.64
eigval :      675.86   688.83   732.68   759.25   787.23   829.27
eigval :      883.16   918.36   929.16   950.86  1000.33  1009.60
eigval :     1063.57  1091.03  1134.14  1171.64  1176.16  1197.92
eigval :     1206.81  1238.70  1263.71  1309.56  1367.19  1417.26
eigval :     1431.89  1437.06  1456.89  1573.85  1590.14  1742.74
eigval :     1780.08  3016.60  3055.55  3067.65  3092.26  3096.84
eigval :     3103.47  3108.70  3225.03
           -------------------------------------------------
          |                Property Printout                |
           -------------------------------------------------

    * Orbital Energies and Occupations

         #    Occupation            Energy/Eh            Energy/eV
      -------------------------------------------------------------
         1        2.0000           -0.7735679             -21.0499
       ...           ...                  ...                  ...
        22        2.0000           -0.5138450             -13.9824
        23        2.0000           -0.5084079             -13.8345
        24        2.0000           -0.5052534             -13.7486
        25        2.0000           -0.5021294             -13.6636
        26        2.0000           -0.5010608             -13.6346
        27        2.0000           -0.4859686             -13.2239
        28        2.0000           -0.4736690             -12.8892
        29        2.0000           -0.4675856             -12.7237
        30        2.0000           -0.4588763             -12.4867
        31        2.0000           -0.4504151             -12.2564
        32        2.0000           -0.4370176             -11.8919
        33        2.0000           -0.4316331             -11.7453
        34        2.0000           -0.4151088             -11.2957 (HOMO)
        35                         -0.2692161              -7.3257 (LUMO)
        36                         -0.2618885              -7.1263
        37                         -0.2509245              -6.8280
        38                         -0.2263652              -6.1597
        39                         -0.1264804              -3.4417
        40                         -0.0093005              -0.2531
        41                          0.0606610               1.6507
        42                          0.0995957               2.7101
        43                          0.1181047               3.2138
        44                          0.1309205               3.5625
        45                          0.1391512               3.7865
       ...                                ...                  ...
        60                          0.6453252              17.5602
      -------------------------------------------------------------
                  HL-Gap            0.1458928 Eh            3.9699 eV
             Fermi-level           -0.3421625 Eh           -9.3107 eV

     #   Z          covCN         q      C6AA      α(0)
     1   6          3.754    -0.149    23.438     6.903
     2   6          2.714     0.371    20.715     7.450
     3   8          0.856    -0.430    22.295     6.331
     4   8          1.708    -0.252    18.182     5.757
     5   6          2.875     0.144    24.857     8.173
     6   6          2.918    -0.040    28.985     8.829
     7   6          2.921    -0.023    28.585     8.768
     8   6          2.918    -0.026    28.660     8.779
     9   6          2.928    -0.019    28.493     8.754
    10   6          2.966    -0.040    29.001     8.833
    11   6          2.693     0.366    20.788     7.462
    12   8          0.857    -0.371    21.107     6.160
    13   8          1.658    -0.374    20.347     6.089
    14   1          0.925     0.086     1.918     2.166
    15   1          0.925     0.095     1.835     2.118
    16   1          0.925     0.081     1.965     2.192
    17   1          0.926     0.060     2.197     2.318
    18   1          0.926     0.055     2.253     2.347
    19   1          0.926     0.056     2.242     2.341
    20   1          0.926     0.062     2.170     2.304
    21   1          0.803     0.347     0.594     1.211

 Mol. C6AA /au·bohr⁶  :       5546.633791
 Mol. C8AA /au·bohr⁸  :     132516.149867
 Mol. α(0) /au        :        115.284852


Wiberg/Mayer (AO) data.
largest (>0.10) Wiberg bond orders for each atom

 ---------------------------------------------------------------------------
     #   Z sym  total        # sym  WBO       # sym  WBO       # sym  WBO
 ---------------------------------------------------------------------------
     1   6      3.987 --     2      1.000    16      0.975    14      0.974
                            15      0.946
     2   6      3.909 --     3      1.707     4      1.129     1      1.000
     3   8      2.029 --     2      1.707     4      0.167
     4   8      2.351 --     2      1.129     5      0.950     3      0.167
     5   6      3.918 --     6      1.397    10      1.377     4      0.950
                             8      0.103
     6   6      3.989 --     7      1.446     5      1.397    17      0.966
                             9      0.111
     7   6      3.990 --     6      1.446     8      1.431    18      0.969
                            10      0.108
     8   6      3.990 --     9      1.450     7      1.431    19      0.968
                             5      0.103
     9   6      3.988 --     8      1.450    10      1.396    20      0.967
                             6      0.111
    10   6      3.986 --     9      1.396     5      1.377    11      0.951
                             7      0.108
    11   6      3.924 --    12      1.777    13      1.156    10      0.951
    12   8      2.072 --    11      1.777    13      0.176
    13   8      2.223 --    11      1.156    21      0.819    12      0.176
    14   1      0.992 --     1      0.974
    15   1      0.991 --     1      0.946
    16   1      0.993 --     1      0.975
    17   1      0.996 --     6      0.966
    18   1      0.996 --     7      0.969
    19   1      0.996 --     8      0.968
    20   1      0.996 --     9      0.967
    21   1      0.879 --    13      0.819
 ---------------------------------------------------------------------------

Topologies differ in total number of bonds
Writing topology from bond orders to xtbtopo.mol

molecular dipole:
                 x           y           z       tot (Debye)
 q only:        0.317       0.277      -1.644
   full:        0.260       0.358      -1.973       5.139
molecular quadrupole (traceless):
                xx          xy          yy          xz          yz          zz
 q only:       22.755       7.766      -5.291     -14.984       2.723     -17.464
  q+dip:       23.724      10.288      -6.858     -18.502       3.149     -16.866
   full:       22.948       9.883      -4.659     -18.218       3.028     -18.289

           -------------------------------------------------
          |               Frequency Printout                |
           -------------------------------------------------
 projected vibrational frequencies (cm⁻¹)
eigval :       -0.00    -0.00    -0.00     0.00     0.00     0.00
eigval :       42.82    46.39    76.72    81.97    97.04   144.61
eigval :      210.07   229.76   290.31   328.45   354.77   435.97
eigval :      473.82   516.02   555.03   579.12   603.22   643.64
eigval :      675.86   688.83   732.68   759.25   787.23   829.27
eigval :      883.16   918.36   929.16   950.86  1000.33  1009.60
eigval :     1063.57  1091.03  1134.14  1171.64  1176.16  1197.92
eigval :     1206.81  1238.70  1263.71  1309.56  1367.19  1417.26
eigval :     1431.89  1437.06  1456.89  1573.85  1590.14  1742.74
eigval :     1780.08  3016.60  3055.55  3067.65  3092.26  3096.84
eigval :     3103.47  3108.70  3225.03
 reduced masses (amu)
    1:      6.23    2:      7.78    3:      7.32    4:      6.43    5:      7.82    6:      7.70
    7:      3.48    8:      1.20    9:      5.52   10:      4.72   11:      5.43   12:      6.86
   13:      8.91   14:      6.09   15:      4.85   16:      4.36   17:      4.15   18:      6.17
   19:      4.26   20:      4.87   21:      4.01   22:      3.22   23:      6.78   24:      4.16
   25:      1.30   26:      4.97   27:      7.48   28:      5.65   29:      1.55   30:      4.68
   31:      1.28   32:      1.36   33:      1.26   34:      4.86   35:      1.70   36:      1.76
   37:      5.58   38:      1.77   39:      1.73   40:      1.27   41:      1.15   42:      3.92
   43:      3.19   44:      1.33   45:      3.37   46:     11.56   47:      1.25   48:      3.15
Refinement of some symmetry elements was terminated before convergence was reached.
Some symmetry elements may remain unidentified.
Molecule has no symmetry elements
It seems to be the C1 point group
   49:      1.07   50:      1.06   51:      3.43   52:      8.60   53:      8.21   54:     12.10
   55:     12.25   56:      1.08   57:      1.04   58:      1.10   59:      1.08   60:      1.08
   61:      1.09   62:      1.09   63:      1.07
 IR intensities (km·mol⁻¹)
    1:      0.72    2:      0.12    3:      0.61    4:      0.13    5:      1.03    6:      0.94
    7:      4.23    8:      2.52    9:      4.01   10:      2.28   11:      2.35   12:      7.18
   13:      8.06   14:      7.64   15:      1.16   16:      1.56   17:      5.86   18:      1.67
   19:      4.54   20:      2.91   21:      4.20   22:     32.51   23:      6.01   24:     48.25
   25:    168.16   26:      1.62   27:     23.47   28:     15.87   29:     12.57   30:     21.60
   31:      0.56   32:      0.38   33:      0.01   34:     14.68   35:     40.67   36:     18.09
   37:     31.43   38:      1.17   39:     11.89   40:     25.56   41:     18.76   42:    221.00
   43:    195.45   44:     28.74   45:    762.35   46:      3.52   47:     58.87   48:     24.21
   49:     14.84   50:     10.98   51:     12.94   52:      6.76   53:     11.30   54:    322.03
   55:    561.36   56:      0.70   57:      0.71   58:      5.57   59:      0.58   60:      5.37
   61:     21.29   62:     17.59   63:    239.95
 Raman intensities (Ä⁴*amu⁻¹)
    1:      0.00    2:      0.00    3:      0.00    4:      0.00    5:      0.00    6:      0.00
    7:      0.00    8:      0.00    9:      0.00   10:      0.00   11:      0.00   12:      0.00
   13:      0.00   14:      0.00   15:      0.00   16:      0.00   17:      0.00   18:      0.00
   19:      0.00   20:      0.00   21:      0.00   22:      0.00   23:      0.00   24:      0.00
   25:      0.00   26:      0.00   27:      0.00   28:      0.00   29:      0.00   30:      0.00
   31:      0.00   32:      0.00   33:      0.00   34:      0.00   35:      0.00   36:      0.00
   37:      0.00   38:      0.00   39:      0.00   40:      0.00   41:      0.00   42:      0.00
   43:      0.00   44:      0.00   45:      0.00   46:      0.00   47:      0.00   48:      0.00
   49:      0.00   50:      0.00   51:      0.00   52:      0.00   53:      0.00   54:      0.00
   55:      0.00   56:      0.00   57:      0.00   58:      0.00   59:      0.00   60:      0.00
   61:      0.00   62:      0.00   63:      0.00
 output can be read by thermo (or use thermo option).
 writing <g98.out> molden fake output.
 recommended (thermochemical) frequency scaling factor: 1.0
           -------------------------------------------------
          |             Thermodynamic Functions             |
           -------------------------------------------------

c1  symmetry found (for desy threshold:  0.10E+00) used in thermo

          ...................................................
          :                      SETUP                      :
          :.................................................:
          :  # frequencies                          57      :
          :  # imaginary freq.                       0      :
          :  linear?                             false      :
          :  only rotor calc.                    false      :
          :  symmetry                               c1      :
          :  rotational number                       1      :
          :  scaling factor                  1.0000000      :
          :  rotor cutoff                   50.0000000 cm⁻¹ :
          :  imag. cutoff                  -20.0000000 cm⁻¹ :
          :.................................................:

    mode    ω/cm⁻¹     T·S(HO)/kcal·mol⁻¹    T·S(FR)/kcal·mol⁻¹   T·S(vib)
   ------------------------------------------------------------------------
       1     42.82    -1.52779 ( 34.97%)    -1.10232 ( 65.03%)    -1.25112
       2     46.39    -1.48049 ( 42.56%)    -1.07859 ( 57.44%)    -1.24965
       3     76.72    -1.18456 ( 84.72%)    -0.92962 ( 15.28%)    -1.14560
       4     81.97    -1.14584 ( 87.84%)    -0.91003 ( 12.16%)    -1.11717
       5     97.04    -1.04738 ( 93.42%)    -0.86004 (  6.58%)    -1.03504
Note: The following floating-point exceptions are signalling: IEEE_UNDERFLOW_FLAG
normal termination of xtb
       6    144.61    -0.81753 ( 98.59%)    -0.74190 (  1.41%)    -0.81647
       7    210.07    -0.60914 ( 99.68%)    -0.63129 (  0.32%)    -0.60922
       8    229.76    -0.56076 ( 99.78%)    -0.60474 (  0.22%)    -0.56086
       9    290.31    -0.43892 ( 99.91%)    -0.53546 (  0.09%)    -0.43901
   ------------------------------------------------------------------------

   temp. (K)  partition function   enthalpy   heat capacity  entropy
                                   cal/mol     cal/K/mol   cal/K/mol   J/K/mol
 298.15  VIB  0.155E+05             5862.867     36.761     36.866
         ROT  0.131E+07              888.727      2.981     30.976
         INT  0.204E+11             6751.594     39.742     67.842
         TR   0.740E+26             1481.212      4.968     41.473
         TOT                        8232.8065    44.7103   109.3147   457.3726

       T/K    H(0)-H(T)+PV         H(T)/Eh          T*S/Eh         G(T)/Eh
   ------------------------------------------------------------------------
    298.15    0.131198E-01    0.164141E+00    0.519389E-01    0.112202E+00
   ------------------------------------------------------------------------

         :::::::::::::::::::::::::::::::::::::::::::::::::::::
         ::                  THERMODYNAMIC                  ::
         :::::::::::::::::::::::::::::::::::::::::::::::::::::
         :: total free energy         -39.510203555546 Eh   ::
         ::.................................................::
         :: total energy              -39.622405837981 Eh   ::
         :: zero point energy           0.151021395194 Eh   ::
         :: G(RRHO) w/o ZPVE           -0.038819112758 Eh   ::
         :: G(RRHO) contrib.            0.112202282435 Eh   ::
         :::::::::::::::::::::::::::::::::::::::::::::::::::::

           -------------------------------------------------
          | TOTAL ENERGY              -39.622405837981 Eh   |
          | TOTAL ENTHALPY            -39.458264630565 Eh   |
          | TOTAL FREE ENERGY         -39.510203555546 Eh   |
          | GRADIENT NORM               0.000301608152 Eh/α |
          | HOMO-LUMO GAP               3.969944209229 eV   |
           -------------------------------------------------

------------------------------------------------------------------------
 * finished run on 2026/08/28 at 19:12:11.058     
------------------------------------------------------------------------
 total:
 * wall-time:     0 d,  0 h,  0 min,  3.215 sec
 *  cpu-time:     0 d,  0 h,  0 min,  3.136 sec
 * ratio c/w:     0.976 speedup
 SCF:
 * wall-time:     0 d,  0 h,  0 min,  0.029 sec
 *  cpu-time:     0 d,  0 h,  0 min,  0.024 sec
 * ratio c/w:     0.839 speedup
 analytical hessian:
 * wall-time:     0 d,  0 h,  0 min,  3.169 sec
 *  cpu-time:     0 d,  0 h,  0 min,  3.099 sec
 * ratio c/w:     0.978 speedup

