      -----------------------------------------------------------      
     |                   =====================                   |     
     |                           x T B                           |     
     |                   =====================                   |     
     |                         S. Grimme                         |     
     |          Mulliken Center for Theoretical Chemistry        |     
     |                    University of Bonn                     |     
      -----------------------------------------------------------      

   * xtb version 6.7.1 (unknown) compiled by 'root@buildkitsandbox' on 2026-08-28

   xtb is free software: you can redistribute it and/or modify it under
   the terms of the GNU Lesser General Public License as published by
   the Free Software Foundation, either version 3 of the License, or
   (at your option) any later version.
   
   xtb is distributed in the hope that it will be useful,
   but WITHOUT ANY WARRANTY; without even the implied warranty of
   MERCHANTABILITY or FITNESS FOR A PARTICULAR PURPOSE.  See the
   GNU Lesser General Public License for more details.
   
   Cite this work as:
   * C. Bannwarth, E. Caldeweyher, S. Ehlert, A. Hansen, P. Pracht,
     J. Seibert, S. Spicher, S. Grimme, WIREs Comput. Mol. Sci., 2020, 11,
     e01493. DOI: 10.1002/wcms.1493
   
   for GFN2-xTB:
   * C. Bannwarth, S. Ehlert and S. Grimme., J. Chem. Theory Comput., 2019,
     15, 1652-1671. DOI: 10.1021/acs.jctc.8b01176
   for GFN1-xTB:
   * S. Grimme, C. Bannwarth, P. Shushkov, J. Chem. Theory Comput., 2017,
     13, 1989-2009. DOI: 10.1021/acs.jctc.7b00118
   for GFN0-xTB:
   * P. Pracht, E. Caldeweyher, S. Ehlert, S. Grimme, ChemRxiv, 2019, preprint.
     DOI: 10.26434/chemrxiv.8326202.v1
   for GFN-FF:
   * S. Spicher and S. Grimme, Angew. Chem. Int. Ed., 2020, 59, 15665-15673.
     DOI: 10.1002/anie.202004239
   
   for ALPB and GBSA implicit solvation:
   * S. Ehlert, M. Stahn, S. Spicher, S. Grimme, J. Chem. Theory Comput.,
     2021, 17, 4250-4261. DOI: 10.1021/acs.jctc.1c00471
   
   for ddCOSMO and CPCM-X implicit solvation:
   * M. Stahn, S. Ehlert, S. Grimme, J. Phys. Chem. A,
     2023, XX, XXXX-XXXX. DOI: 10.1021/acs.jpca.3c04382
   
   for DFT-D4:
   * E. Caldeweyher, C. Bannwarth and S. Grimme, J. Chem. Phys., 2017,
     147, 034112. DOI: 10.1063/1.4993215
   * E. Caldeweyher, S. Ehlert, A. Hansen, H. Neugebauer, S. Spicher,
     C. Bannwarth and S. Grimme, J. Chem. Phys., 2019, 150, 154122.
     DOI: 10.1063/1.5090222
   * E. Caldeweyher, J.-M. Mewes, S. Ehlert and S. Grimme, Phys. Chem. Chem. Phys.
     2020, 22, 8499-8512. DOI: 10.1039/D0CP00502A
   
   for sTDA-xTB:
   * S. Grimme and C. Bannwarth, J. Chem. Phys., 2016, 145, 054103.
     DOI: 10.1063/1.4959605
   
   in the mass-spec context:
   * V. Asgeirsson, C. Bauer and S. Grimme, Chem. Sci., 2017, 8, 4879.
     DOI: 10.1039/c7sc00601b
   * J. Koopman and S. Grimme, ACS Omega 2019, 4, 12, 15120-15133.
     DOI: 10.1021/acsomega.9b02011
   
   for metadynamics refer to:
   * S. Grimme, J. Chem. Theory Comput., 2019, 155, 2847-2862
     DOI: 10.1021/acs.jctc.9b00143
   
   for SPH calculations refer to:
   * S. Spicher and S. Grimme, J. Chem. Theory Comput., 2021, 17, 1701-1714
     DOI: 10.1021/acs.jctc.0c01306
   
   for ONIOM refer to:
   * C. Plett, A. Katbashev, S. Ehlert, S. Grimme, M. Bursch,
     Phys. Chem. Chem. Phys., 2023, 25, 17860-17868. DOI: 10.1039/D3CP02178E
   
   for DIPRO refer to:
   * J. Kohn, N. Gildemeister, S. Grimme, D. Fazzi, A. Hansen,
     J. Chem. Phys. 159, 144106 (2023). DOI: 10.1063/5.0167484
   
   for PTB refer to:
   * S. Grimme, M. Mueller, A. Hansen, J. Chem. Phys., 2023, 158, 124111.
     DOI: 10.1063/5.0137838
   
   with help from (in alphabetical order)
   P. Atkinson, C. Bannwarth, F. Bohle, G. Brandenburg, E. Caldeweyher,
   M. Checinski, S. Dohm, S. Ehlert, S. Ehrlich, M. Friede, T. Froitzheim,
   I. Gerasimov, C. Hölzer, A. Katbashev, J. Kohn, J. Koopman, C. Lavigne,
   S. Lehtola, F. März, M. Müller, F. Musil, H. Neugebauer, J. Pisarek,
   C. Plett, P. Pracht, F. Pultar, J. Seibert, P. Shushkov, S. Spicher,
   M. Stahn, M. Steiner, T. Strunk, J. Stückrath, T. Rose, and J. Unsleber
   
 * started run on 2026/08/28 at 19:10:03.119     
   ID    Z sym.   atoms
    1    6 C      1, 2, 5-11
    2    8 O      3, 4, 12, 13
    3    1 H      14-21

           -------------------------------------------------
          |                Calculation Setup                |
           -------------------------------------------------

          program call               : xtb in.xyz --gfn 2 --opt --norestart
          hostname                   : 756d39058c4f
          coordinate file            : in.xyz
          random seed                :              27541498


           -------------------------------------------------
          |                 G F N 2 - x T B                 |
           -------------------------------------------------

        Reference                      10.1021/acs.jctc.8b01176
      * Hamiltonian:
        H0-scaling (s, p, d)           1.850000    2.230000    2.230000
        zeta-weighting                 0.500000
      * Dispersion:
        s8                             2.700000
        a1                             0.520000
        a2                             5.000000
        s9                             5.000000
      * Repulsion:
        kExp                           1.500000    1.000000
        rExp                           1.000000
      * Coulomb:
        alpha                          2.000000
        third order                    shell-resolved
        anisotropic                    true
        a3                             3.000000
        a5                             4.000000
        cn-shift                       1.200000
        cn-exp                         4.000000
        max-rad                        5.000000


          ...................................................
          :                      SETUP                      :
          :.................................................:
          :  # basis functions                  60          :
          :  # atomic orbitals                  60          :
          :  # shells                           34          :
          :  # electrons                        68          :
          :  max. iterations                   250          :
          :  Hamiltonian                  GFN2-xTB          :
          :  restarted?                      false          :
          :  GBSA solvation                  false          :
          :  PC potential                    false          :
          :  electronic temp.          300.0000000     K    :
          :  accuracy                    1.0000000          :
          :  -> integral cutoff          0.2500000E+02      :
          :  -> integral neglect         0.1000000E-07      :
          :  -> SCF convergence          0.1000000E-05 Eh   :
          :  -> wf. convergence          0.1000000E-03 e    :
          :  Broyden damping             0.4000000          :
          :  net charge                          0          :
          :  unpaired electrons                  0          :
          ...................................................

 iter      E             dE          RMSdq      gap      omega  full diag
   1    -39.9873053 -0.399873E+02  0.532E+00    4.33       0.0  T
   2    -40.0558879 -0.685826E-01  0.293E+00    3.44       1.0  T
   3    -40.0562898 -0.401931E-03  0.160E+00    3.97       1.0  T
   4    -40.0678750 -0.115852E-01  0.269E-01    3.64       1.0  T
   5    -40.0686312 -0.756145E-03  0.104E-01    3.70       1.0  T
   6    -40.0687261 -0.949050E-04  0.447E-02    3.73       1.0  T
   7    -40.0687316 -0.550587E-05  0.155E-02    3.72       1.4  T
   8    -40.0687326 -0.103888E-05  0.654E-03    3.72       3.3  T
   9    -40.0687329 -0.251204E-06  0.213E-03    3.72      10.3  T
  10    -40.0687329 -0.228614E-07  0.103E-03    3.72      21.2  T
  11    -40.0687329 -0.725830E-08  0.477E-04    3.72      45.7  T
  12    -40.0687329 -0.117069E-08  0.173E-04    3.72     126.1  T

   *** convergence criteria satisfied after 12 iterations ***

         #    Occupation            Energy/Eh            Energy/eV
      -------------------------------------------------------------
         1        2.0000           -0.7676303             -20.8883
       ...           ...                  ...                  ...
        28        2.0000           -0.4711966             -12.8219
        29        2.0000           -0.4670783             -12.7098
        30        2.0000           -0.4601868             -12.5223
        31        2.0000           -0.4541909             -12.3592
        32        2.0000           -0.4353780             -11.8472
        33        2.0000           -0.4314875             -11.7414
        34        2.0000           -0.4145847             -11.2814 (HOMO)
        35                         -0.2778615              -7.5610 (LUMO)
        36                         -0.2684938              -7.3061
        37                         -0.2588649              -7.0441
        38                         -0.2331163              -6.3434
        39                         -0.1344221              -3.6578
       ...                                ...                  ...
        60                          0.6106975              16.6179
      -------------------------------------------------------------
                  HL-Gap            0.1367232 Eh            3.7204 eV
             Fermi-level           -0.3462231 Eh           -9.4212 eV

 SCC (total)                   0 d,  0 h,  0 min,  0.039 sec
 SCC setup                      ...        0 min,  0.000 sec (  0.151%)
 Dispersion                     ...        0 min,  0.000 sec (  0.191%)
 classical contributions        ...        0 min,  0.000 sec (  0.031%)
 integral evaluation            ...        0 min,  0.002 sec (  3.975%)
 iterations                     ...        0 min,  0.026 sec ( 66.285%)
 molecular gradient             ...        0 min,  0.011 sec ( 27.432%)
 printout                       ...        0 min,  0.001 sec (  1.897%)

         :::::::::::::::::::::::::::::::::::::::::::::::::::::
         ::                     SUMMARY                     ::
         :::::::::::::::::::::::::::::::::::::::::::::::::::::
         :: total energy             -39.614087317600 Eh    ::
         :: gradient norm              0.083572608861 Eh/a0 ::
         :: HOMO-LUMO gap              3.720428143174 eV    ::
         ::.................................................::
         :: SCC energy               -40.068633806008 Eh    ::
         :: -> isotropic ES            0.091787558982 Eh    ::
         :: -> anisotropic ES          0.000396896703 Eh    ::
         :: -> anisotropic XC          0.008217610981 Eh    ::
         :: -> dispersion             -0.019277821335 Eh    ::
         :: repulsion energy           0.454546488408 Eh    ::
         :: add. restraining           0.000000000000 Eh    ::
         :: total charge               0.000000000000 e     ::
         :::::::::::::::::::::::::::::::::::::::::::::::::::::

      ----------------------------------------------------------- 
     |                   =====================                   |
     |                        A N C O P T                        |
     |                   =====================                   |
     |               Approximate Normal Coordinate               |
     |                Rational Function Optimizer                |
      ----------------------------------------------------------- 

          ...................................................
          :                      SETUP                      :
          :.................................................:
          :   optimization level            normal          :
          :   max. optcycles                   200          :
          :   ANC micro-cycles                  20          :
          :   degrees of freedom                57          :
          :.................................................:
          :   RF solver                   davidson          :
          :   write xtbopt.log                true          :
          :   linear?                        false          :
          :   energy convergence         0.5000000E-05 Eh   :
          :   grad. convergence          0.1000000E-02 Eh/α :
          :   maximum RF displ.          1.0000000          :
          :   Hlow (freq-cutoff)         0.1000000E-01      :
          :   Hmax (freq-cutoff)         5.0000000          :
          :   S6 in model hess.         20.0000000          :
          ...................................................

generating ANC from exact Hessian ...
Using Lindh-Hessian (1995)
 Shifting diagonal of input Hessian by    8.3026341214774320E-003
 Lowest  eigenvalues of input Hessian
    0.000000    0.000000    0.000000    0.000000    0.000000    0.000000
    0.010000    0.011093    0.013126    0.015130    0.019714    0.023149
    0.025086    0.026729    0.030720    0.031916    0.037771    0.044857
 Highest eigenvalues
    1.769423    1.836654    1.966688    2.008998    2.206035    2.307985


........................................................................
.............................. CYCLE    1 ..............................
........................................................................

 iter      E             dE          RMSdq      gap      omega  full diag
   1    -40.0687329 -0.400687E+02  0.791E-05    3.72       0.0  T
   2    -40.0687329 -0.193339E-10  0.451E-05    3.72     484.3  T
   3    -40.0687329 -0.373745E-11  0.292E-05    3.72     747.6  T
     SCC iter.                  ...        0 min,  0.008 sec
     gradient                   ...        0 min,  0.010 sec
 * total energy  :   -39.6140873 Eh     change       -0.3194671E-09 Eh
   gradient norm :     0.0835735 Eh/α   predicted     0.0000000E+00 (-100.00%)
   displ. norm   :     0.1922082 α      lambda       -0.1106712E-01
   maximum displ.:     0.0720160 α      in ANC's #38, #34, #12, ...

........................................................................
.............................. CYCLE    2 ..............................
........................................................................

 iter      E             dE          RMSdq      gap      omega  full diag
   1    -40.1033914 -0.401034E+02  0.233E-01    3.97       0.0  T
   2    -40.1034953 -0.103962E-03  0.140E-01    3.97       1.0  T
   3    -40.1034895  0.578956E-05  0.715E-02    4.01       1.0  T
   4    -40.1035247 -0.351501E-04  0.128E-02    4.00       1.7  T
   5    -40.1035267 -0.203377E-05  0.593E-03    4.00       3.7  T
   6    -40.1035269 -0.158795E-06  0.255E-03    4.00       8.5  T
   7    -40.1035269 -0.126594E-07  0.942E-04    4.00      23.2  T
   8    -40.1035269 -0.136991E-08  0.350E-04    4.00      62.3  T
     SCC iter.                  ...        0 min,  0.019 sec
     gradient                   ...        0 min,  0.016 sec
 * total energy  :   -39.6210357 Eh     change       -0.6948355E-02 Eh
   gradient norm :     0.0259038 Eh/α   predicted    -0.5738378E-02 ( -17.41%)
   displ. norm   :     0.1489295 α      lambda       -0.1870216E-02
   maximum displ.:     0.0695535 α      in ANC's #9, #1, #12, ...

........................................................................
.............................. CYCLE    3 ..............................
........................................................................

 iter      E             dE          RMSdq      gap      omega  full diag
   1    -40.1138031 -0.401138E+02  0.127E-01    4.04       0.0  T
   2    -40.1138493 -0.461918E-04  0.751E-02    4.04       1.0  T
   3    -40.1138506 -0.136792E-05  0.366E-02    4.05       1.0  T
   4    -40.1138559 -0.525091E-05  0.907E-03    4.05       2.4  T
   5    -40.1138567 -0.790676E-06  0.340E-03    4.05       6.4  T
   6    -40.1138568 -0.990202E-07  0.172E-03    4.05      12.7  T
   7    -40.1138568 -0.689072E-08  0.580E-04    4.05      37.6  T
   8    -40.1138568 -0.368829E-09  0.220E-04    4.05      99.4  T
     SCC iter.                  ...        0 min,  0.011 sec
     gradient                   ...        0 min,  0.009 sec
 * total energy  :   -39.6219632 Eh     change       -0.9274773E-03 Eh
   gradient norm :     0.0131240 Eh/α   predicted    -0.9558818E-03 (   3.06%)
   displ. norm   :     0.0827814 α      lambda       -0.2518458E-03
   maximum displ.:     0.0395965 α      in ANC's #3, #1, #4, ...

........................................................................
.............................. CYCLE    4 ..............................
........................................................................

 iter      E             dE          RMSdq      gap      omega  full diag
   1    -40.1119453 -0.401119E+02  0.504E-02    4.05       0.0  T
   2    -40.1119546 -0.930228E-05  0.294E-02    4.04       1.0  T
   3    -40.1119544  0.192498E-06  0.137E-02    4.04       1.6  T
   4    -40.1119547 -0.323899E-06  0.519E-03    4.04       4.2  T
   5    -40.1119552 -0.496838E-06  0.817E-04    4.04      26.7  T
   6    -40.1119552 -0.322935E-08  0.451E-04    4.04      48.4  T
     SCC iter.                  ...        0 min,  0.011 sec
     gradient                   ...        0 min,  0.006 sec
 * total energy  :   -39.6221256 Eh     change       -0.1624374E-03 Eh
   gradient norm :     0.0051089 Eh/α   predicted    -0.1267908E-03 ( -21.94%)
   displ. norm   :     0.1251303 α      lambda       -0.1525128E-03
   maximum displ.:     0.0706637 α      in ANC's #3, #1, #2, ...

........................................................................
.............................. CYCLE    5 ..............................
........................................................................

 iter      E             dE          RMSdq      gap      omega  full diag
   1    -40.1098130 -0.401098E+02  0.603E-02    4.03       0.0  T
   2    -40.1098184 -0.536181E-05  0.347E-02    4.03       1.0  T
   3    -40.1098184  0.129065E-08  0.928E-03    4.03       2.4  T
   4    -40.1098185 -0.870991E-07  0.277E-03    4.03       7.9  T
   5    -40.1098186 -0.935189E-07  0.822E-04    4.03      26.5  T
   6    -40.1098186 -0.100700E-08  0.436E-04    4.03      50.1  T
     SCC iter.                  ...        0 min,  0.010 sec
     gradient                   ...        0 min,  0.007 sec
 * total energy  :   -39.6222384 Eh     change       -0.1127901E-03 Eh
   gradient norm :     0.0035313 Eh/α   predicted    -0.7745290E-04 ( -31.33%)
   displ. norm   :     0.1812391 α      lambda       -0.1391344E-03
   maximum displ.:     0.1062183 α      in ANC's #3, #1, #2, ...

........................................................................
.............................. CYCLE    6 ..............................
........................................................................

 iter      E             dE          RMSdq      gap      omega  full diag
   1    -40.1086320 -0.401086E+02  0.832E-02    4.01       0.0  T
   2    -40.1086351 -0.308662E-05  0.485E-02    4.00       1.0  T
   3    -40.1086347  0.403574E-06  0.822E-03    4.00       2.7  T
   4    -40.1086354 -0.674973E-06  0.289E-03    4.00       7.6  T
   5    -40.1086355 -0.125544E-06  0.119E-03    4.00      18.3  T
   6    -40.1086355 -0.278988E-08  0.605E-04    4.00      36.0  T
   7    -40.1086355 -0.208776E-08  0.134E-04    4.00     163.2  T
     SCC iter.                  ...        0 min,  0.010 sec
     gradient                   ...        0 min,  0.008 sec
 * total energy  :   -39.6223332 Eh     change       -0.9481927E-04 Eh
   gradient norm :     0.0056613 Eh/α   predicted    -0.7185275E-04 ( -24.22%)
   displ. norm   :     0.1316593 α      lambda       -0.7181892E-04
   maximum displ.:     0.0737652 α      in ANC's #3, #1, #2, ...

........................................................................
.............................. CYCLE    7 ..............................
........................................................................

 iter      E             dE          RMSdq      gap      omega  full diag
   1    -40.1091897 -0.401092E+02  0.586E-02    3.99       0.0  T
   2    -40.1091906 -0.909189E-06  0.345E-02    3.99       1.0  T
   3    -40.1091897  0.872803E-06  0.765E-03    3.98       2.9  T
   4    -40.1091909 -0.117363E-05  0.172E-03    3.98      12.7  T
   5    -40.1091909 -0.234004E-07  0.923E-04    3.98      23.6  T
   6    -40.1091909 -0.361573E-08  0.361E-04    3.98      60.4  T
     SCC iter.                  ...        0 min,  0.010 sec
     gradient                   ...        0 min,  0.008 sec
 * total energy  :   -39.6223816 Eh     change       -0.4838226E-04 Eh
   gradient norm :     0.0040206 Eh/α   predicted    -0.3655139E-04 ( -24.45%)
   displ. norm   :     0.0715406 α      lambda       -0.3233910E-04
   maximum displ.:     0.0407281 α      in ANC's #1, #3, #2, ...

........................................................................
.............................. CYCLE    8 ..............................
........................................................................

 iter      E             dE          RMSdq      gap      omega  full diag
   1    -40.1103750 -0.401104E+02  0.325E-02    3.98       0.0  T
   2    -40.1103757 -0.692271E-06  0.192E-02    3.98       1.1  T
   3    -40.1103755  0.162933E-06  0.429E-03    3.97       5.1  T
   4    -40.1103758 -0.239053E-06  0.134E-03    3.97      16.3  T
   5    -40.1103758 -0.251807E-07  0.562E-04    3.97      38.8  T
   6    -40.1103758 -0.116353E-08  0.289E-04    3.97      75.6  T
     SCC iter.                  ...        0 min,  0.011 sec
     gradient                   ...        0 min,  0.012 sec
 * total energy  :   -39.6224010 Eh     change       -0.1940301E-04 Eh
   gradient norm :     0.0014416 Eh/α   predicted    -0.1625290E-04 ( -16.24%)
   displ. norm   :     0.0294719 α      lambda       -0.5489478E-05
   maximum displ.:     0.0148053 α      in ANC's #1, #7, #11, ...

........................................................................
.............................. CYCLE    9 ..............................
........................................................................

 iter      E             dE          RMSdq      gap      omega  full diag
   1    -40.1108916 -0.401109E+02  0.174E-02    3.97       0.0  T
   2    -40.1108920 -0.349788E-06  0.102E-02    3.97       2.1  T
   3    -40.1108919  0.472416E-07  0.310E-03    3.97       7.0  T
   4    -40.1108920 -0.606916E-07  0.109E-03    3.97      20.0  T
   5    -40.1108920 -0.164851E-07  0.267E-04    3.97      81.6  T
   6    -40.1108920 -0.663931E-10  0.127E-04    3.97     172.0  T
     SCC iter.                  ...        0 min,  0.010 sec
     gradient                   ...        0 min,  0.004 sec
 * total energy  :   -39.6224046 Eh     change       -0.3575796E-05 Eh
   gradient norm :     0.0011153 Eh/α   predicted    -0.2746351E-05 ( -23.20%)
   displ. norm   :     0.0073736 α      lambda       -0.1559178E-05
   maximum displ.:     0.0048673 α      in ANC's #3, #9, #5, ...

........................................................................
.............................. CYCLE   10 ..............................
........................................................................

 iter      E             dE          RMSdq      gap      omega  full diag
   1    -40.1106007 -0.401106E+02  0.504E-03    3.97       0.0  T
   2    -40.1106007 -0.379120E-07  0.302E-03    3.97       7.2  T
   3    -40.1106007  0.105712E-07  0.138E-03    3.97      15.8  T
   4    -40.1106007 -0.188828E-07  0.264E-04    3.97      82.7  T
   5    -40.1106007 -0.990411E-09  0.952E-05    3.97     229.3  T
     SCC iter.                  ...        0 min,  0.007 sec
     gradient                   ...        0 min,  0.005 sec
 * total energy  :   -39.6224058 Eh     change       -0.1279968E-05 Eh
   gradient norm :     0.0003012 Eh/α   predicted    -0.7824881E-06 ( -38.87%)
   displ. norm   :     0.0087601 α      lambda       -0.5143349E-06
   maximum displ.:     0.0073891 α      in ANC's #3, #4, #9, ...

   *** GEOMETRY OPTIMIZATION CONVERGED AFTER 10 ITERATIONS ***

------------------------------------------------------------------------
 total energy gain   :        -0.0083185 Eh       -5.2200 kcal/mol
 total RMSD          :         0.1667884 a0        0.0883 Å
 total power (kW/mol):        -2.1840272 (step)  -94.1613 (real)
------------------------------------------------------------------------

 ANCopt (total)                0 d,  0 h,  0 min,  0.232 sec
 optimizer setup                ...        0 min,  0.000 sec (  0.106%)
 model hessian                  ...        0 min,  0.002 sec (  0.794%)
 ANC generation                 ...        0 min,  0.004 sec (  1.875%)
 coordinate transformation      ...        0 min,  0.000 sec (  0.073%)
 single point calculation       ...        0 min,  0.222 sec ( 95.564%)
 optimization log               ...        0 min,  0.001 sec (  0.276%)
 hessian update                 ...        0 min,  0.000 sec (  0.040%)
 rational function              ...        0 min,  0.001 sec (  0.283%)

================
 final structure:
================
21
 xtb: 6.7.1 (unknown)
C            1.11189562006258        0.85168238798683       -0.35014381061068
C            2.43602232552434        1.32822231916016        0.16071737380747
O            2.64719301581599        2.41474054235381        0.64570724327358
O            3.37592096596059        0.38661152146126        0.04043713295400
C            4.69521156925097        0.68646009129870        0.40199599402899
C            5.61437502305697        0.81085291566953       -0.63023936077566
C            6.94503305359103        1.05399814131383       -0.34700393432160
C            7.36254651751813        1.16572777391832        0.96897864660634
C            6.44808631665331        1.02891346843928        1.99562553712556
C            5.10018542455856        0.80194212433162        1.72914945122512
C            4.19064770944829        0.61876318866455        2.91834997141158
O            4.33968325948929       -0.29249856923476        3.68320573550592
O            3.25794860976585        1.55015473064276        3.10804009722491
H            0.52315549368036        1.69969702633533       -0.68737225353271
H            0.58566791770503        0.36964788446947        0.47300389844527
H            1.24735987177928        0.12684765991190       -1.14691173572245
H            5.26999734263965        0.71039288531757       -1.64796418676145
H            7.65389440566361        1.15216845930765       -1.15453373943512
H            8.40102122631911        1.35087084031258        1.19530676893111
H            6.76396235459768        1.09570988997056        3.02547764993915
H            3.18065197691940        2.18653471836901        2.36687352068067

 Bond Distances (Angstroems)
 ---------------------------
C1-C2=1.4971         C1-H14=1.0860        C1-H15=1.0894        C1-H16=1.0856        C2-C1=1.4971         C2-O3=1.2084         
C2-O4=1.3359         O3-C2=1.2084         O4-C2=1.3359         O4-C5=1.4004         C5-O4=1.4004         C5-C6=1.3877         
C5-C10=1.3924        C6-C5=1.3877         C6-C7=1.3820         C6-H17=1.0791        C7-C6=1.3820         C7-C8=1.3851         
C7-H18=1.0790        C8-C7=1.3851         C8-C9=1.3817         C8-H19=1.0789        C9-C8=1.3817         C9-C10=1.3926        
C9-H20=1.0793        C10-C5=1.3924        C10-C9=1.3926        C10-C11=1.5083       C11-C10=1.5083       C11-O12=1.1990       
C11-O13=1.3317       O12-C11=1.1990       O13-C11=1.3317       O13-H21=0.9799       H14-C1=1.0860        H15-C1=1.0894        
H16-C1=1.0856        H17-C6=1.0791        H18-C7=1.0790        H19-C8=1.0789        H20-C9=1.0793        H21-O13=0.9799       
 C  H  Rav=1.0825 sigma=0.0041  Rmin=1.0789  Rmax=1.0894     7
 C  C  Rav=1.4159 sigma=0.0504  Rmin=1.3817  Rmax=1.5083     8
 O  H  Rav=0.9799 sigma=0.0000  Rmin=0.9799  Rmax=0.9799     1
 O  C  Rav=1.2951 sigma=0.0785  Rmin=1.1990  Rmax=1.4004     5

 selected bond angles (degree)
 --------------------
H14-C1-C2=109.69               H15-C1-C2=108.07               H15-C1-H14=108.56              H16-C1-C2=110.65               
H16-C1-H14=111.17              H16-C1-H15=108.63              O3-C2-C1=125.29                O4-C2-C1=111.54                
O4-C2-O3=123.16                C5-O4-C2=119.25                C6-C5-O4=116.82                C10-C5-O4=122.54               
C10-C5-C6=120.59               C7-C6-C5=120.07                H17-C6-C5=118.80               H17-C6-C7=121.13               
C8-C7-C6=119.94                H18-C7-C6=119.68               H18-C7-C8=120.38               C9-C8-C7=119.90                
H19-C8-C7=120.22               H19-C8-C9=119.88               C10-C9-C8=120.97               H20-C9-C8=120.61               
H20-C9-C10=118.42              C9-C10-C5=118.52               C11-C10-C5=124.47              C11-C10-C9=116.91              

 selected dihedral angles (degree)
 ---------------------------------
O3-C2-C1-H14= 28.20           O3-C2-C1-H15=270.02           O3-C2-C1-H16=151.20           O4-C2-C1-H14=207.02           
O4-C2-C1-H15= 88.84           O4-C2-C1-H16=330.02           C5-O4-C2-C1=176.52            C5-O4-C2-O3=355.37            
C6-C5-O4-C2=251.32            C10-C5-O4-C2= 74.02           C7-C6-C5-O4=182.52            C7-C6-C5-C10=359.88           
H17-C6-C5-O4=  2.28           H17-C6-C5-C10=179.64          C8-C7-C6-C5=  0.38            C8-C7-C6-H17=180.63           
H18-C7-C6-C5=180.16           H18-C7-C6-H17=  0.41          C9-C8-C7-C6=  0.23            C9-C8-C7-H18=180.46           
H19-C8-C7-C6=179.71           H19-C8-C7-H18=359.93          C10-C9-C8-C7=358.88           C10-C9-C8-H19=179.40          
H20-C9-C8-C7=178.87           H20-C9-C8-H19=359.39          C9-C10-C5-O4=176.46           C9-C10-C5-C6=359.26           
C11-C10-C5-O4=  0.19          C11-C10-C5-C6=182.99          C5-C10-C9-C8=  1.37           C5-C10-C9-H20=181.37          
C11-C10-C9-C8=177.92          C11-C10-C9-H20=357.93         
           -------------------------------------------------
          |                Final Singlepoint                |
           -------------------------------------------------

          ...................................................
          :                      SETUP                      :
          :.................................................:
          :  # basis functions                  60          :
          :  # atomic orbitals                  60          :
          :  # shells                           34          :
          :  # electrons                        68          :
          :  max. iterations                   250          :
          :  Hamiltonian                  GFN2-xTB          :
          :  restarted?                      false          :
          :  GBSA solvation                  false          :
          :  PC potential                    false          :
          :  electronic temp.          300.0000000     K    :
          :  accuracy                    1.0000000          :
          :  -> integral cutoff          0.2500000E+02      :
          :  -> integral neglect         0.1000000E-07      :
          :  -> SCF convergence          0.1000000E-05 Eh   :
          :  -> wf. convergence          0.1000000E-03 e    :
          :  Broyden damping             0.4000000          :
          :  net charge                          0          :
          :  unpaired electrons                  0          :
          ...................................................

 iter      E             dE          RMSdq      gap      omega  full diag
   1    -40.1106007 -0.401106E+02  0.536E-05    3.97       0.0  T
   2    -40.1106007 -0.562750E-11  0.333E-05    3.97     655.2  T
   3    -40.1106007 -0.319744E-12  0.204E-05    3.97    1067.9  T

   *** convergence criteria satisfied after 3 iterations ***

         #    Occupation            Energy/Eh            Energy/eV
      -------------------------------------------------------------
         1        2.0000           -0.7735683             -21.0499
       ...           ...                  ...                  ...
        28        2.0000           -0.4736686             -12.8892
        29        2.0000           -0.4675854             -12.7236
        30        2.0000           -0.4588763             -12.4867
        31        2.0000           -0.4504153             -12.2564
        32        2.0000           -0.4370176             -11.8919
        33        2.0000           -0.4316331             -11.7453
        34        2.0000           -0.4151085             -11.2957 (HOMO)
        35                         -0.2692161              -7.3257 (LUMO)
        36                         -0.2618886              -7.1264
        37                         -0.2509246              -6.8280
        38                         -0.2263651              -6.1597
        39                         -0.1264805              -3.4417
       ...                                ...                  ...
        60                          0.6453253              17.5602
      -------------------------------------------------------------
                  HL-Gap            0.1458924 Eh            3.9699 eV
             Fermi-level           -0.3421623 Eh           -9.3107 eV

 SCC (total)                   0 d,  0 h,  0 min,  0.022 sec
 SCC setup                      ...        0 min,  0.000 sec (  1.373%)
 Dispersion                     ...        0 min,  0.000 sec (  0.474%)
 classical contributions        ...        0 min,  0.000 sec (  0.161%)
 integral evaluation            ...        0 min,  0.004 sec ( 16.993%)
 iterations                     ...        0 min,  0.005 sec ( 20.529%)
 molecular gradient             ...        0 min,  0.013 sec ( 59.619%)
 printout                       ...        0 min,  0.000 sec (  0.761%)

         :::::::::::::::::::::::::::::::::::::::::::::::::::::
         ::                     SUMMARY                     ::
         :::::::::::::::::::::::::::::::::::::::::::::::::::::
         :: total energy             -39.622405837985 Eh    ::
         :: gradient norm              0.000301363025 Eh/a0 ::
         :: HOMO-LUMO gap              3.969933672572 eV    ::
         ::.................................................::
         :: SCC energy               -40.110506455122 Eh    ::
         :: -> isotropic ES            0.091404061558 Eh    ::
         :: -> anisotropic ES         -0.000080470546 Eh    ::
         :: -> anisotropic XC          0.006534676429 Eh    ::
         :: -> dispersion             -0.019169037823 Eh    ::
         :: repulsion energy           0.488100617137 Eh    ::
         :: add. restraining           0.000000000000 Eh    ::
         :: total charge              -0.000000000000 e     ::
         :::::::::::::::::::::::::::::::::::::::::::::::::::::

           -------------------------------------------------
          |                Property Printout                |
           -------------------------------------------------

    * Orbital Energies and Occupations

         #    Occupation            Energy/Eh            Energy/eV
      -------------------------------------------------------------
         1        2.0000           -0.7735683             -21.0499
       ...           ...                  ...                  ...
        22        2.0000           -0.5138450             -13.9824
        23        2.0000           -0.5084078             -13.8345
        24        2.0000           -0.5052534             -13.7486
        25        2.0000           -0.5021294             -13.6636
        26        2.0000           -0.5010608             -13.6346
        27        2.0000           -0.4859686             -13.2239
        28        2.0000           -0.4736686             -12.8892
        29        2.0000           -0.4675854             -12.7236
        30        2.0000           -0.4588763             -12.4867
        31        2.0000           -0.4504153             -12.2564
        32        2.0000           -0.4370176             -11.8919
        33        2.0000           -0.4316331             -11.7453
        34        2.0000           -0.4151085             -11.2957 (HOMO)
        35                         -0.2692161              -7.3257 (LUMO)
        36                         -0.2618886              -7.1264
        37                         -0.2509246              -6.8280
        38                         -0.2263651              -6.1597
        39                         -0.1264805              -3.4417
        40                         -0.0093008              -0.2531
        41                          0.0606611               1.6507
        42                          0.0995962               2.7102
        43                          0.1181046               3.2138
        44                          0.1309205               3.5625
        45                          0.1391511               3.7865
       ...                                ...                  ...
        60                          0.6453253              17.5602
      -------------------------------------------------------------
                  HL-Gap            0.1458924 Eh            3.9699 eV
             Fermi-level           -0.3421623 Eh           -9.3107 eV

     #   Z          covCN         q      C6AA      α(0)
     1   6          3.754    -0.149    23.438     6.903
     2   6          2.714     0.371    20.715     7.450
     3   8          0.856    -0.430    22.295     6.331
     4   8          1.708    -0.252    18.182     5.757
     5   6          2.875     0.144    24.857     8.173
     6   6          2.918    -0.040    28.985     8.829
     7   6          2.921    -0.023    28.585     8.768
     8   6          2.918    -0.026    28.660     8.779
     9   6          2.928    -0.019    28.493     8.754
    10   6          2.966    -0.040    29.001     8.833
    11   6          2.693     0.366    20.788     7.462
    12   8          0.857    -0.371    21.107     6.160
    13   8          1.658    -0.374    20.347     6.089
    14   1          0.925     0.086     1.918     2.166
    15   1          0.925     0.095     1.835     2.118
    16   1          0.925     0.081     1.965     2.192
    17   1          0.926     0.060     2.197     2.318
    18   1          0.926     0.055     2.253     2.347
    19   1          0.926     0.056     2.242     2.341
    20   1          0.926     0.062     2.170     2.304
    21   1          0.803     0.347     0.594     1.211

 Mol. C6AA /au·bohr⁶  :       5546.633970
 Mol. C8AA /au·bohr⁸  :     132516.150055
 Mol. α(0) /au        :        115.284854


Wiberg/Mayer (AO) data.
largest (>0.10) Wiberg bond orders for each atom

 ---------------------------------------------------------------------------
     #   Z sym  total        # sym  WBO       # sym  WBO       # sym  WBO
 ---------------------------------------------------------------------------
     1   6      3.987 --     2      1.000    16      0.975    14      0.974
                            15      0.946
     2   6      3.909 --     3      1.707     4      1.129     1      1.000
     3   8      2.029 --     2      1.707     4      0.167
     4   8      2.351 --     2      1.129     5      0.950     3      0.167
     5   6      3.918 --     6      1.397    10      1.377     4      0.950
                             8      0.103
     6   6      3.989 --     7      1.446     5      1.397    17      0.966
                             9      0.111
     7   6      3.990 --     6      1.446     8      1.431    18      0.969
                            10      0.108
     8   6      3.990 --     9      1.450     7      1.431    19      0.968
                             5      0.103
     9   6      3.988 --     8      1.450    10      1.396    20      0.967
                             6      0.111
    10   6      3.986 --     9      1.396     5      1.377    11      0.951
                             7      0.108
    11   6      3.924 --    12      1.777    13      1.156    10      0.951
    12   8      2.072 --    11      1.777    13      0.176
    13   8      2.223 --    11      1.156    21      0.819    12      0.176
    14   1      0.992 --     1      0.974
    15   1      0.991 --     1      0.946
    16   1      0.993 --     1      0.975
    17   1      0.996 --     6      0.966
    18   1      0.996 --     7      0.969
    19   1      0.996 --     8      0.968
    20   1      0.996 --     9      0.967
    21   1      0.879 --    13      0.819
 ---------------------------------------------------------------------------

Topologies differ in total number of bonds
Writing topology from bond orders to xtbtopo.mol

molecular dipole:
                 x           y           z       tot (Debye)
 q only:        0.317       0.277      -1.644
   full:        0.260       0.358      -1.973       5.139
molecular quadrupole (traceless):
                xx          xy          yy          xz          yz          zz
 q only:       22.755       7.766      -5.291     -14.984       2.723     -17.464
  q+dip:       23.723      10.288      -6.858     -18.502       3.149     -16.866
   full:       22.948       9.883      -4.659     -18.218       3.028     -18.289

           -------------------------------------------------
          |                Geometry Summary                 |
           -------------------------------------------------

      molecular mass/u    :      180.1577688
   center of mass at/Å    :        4.3247428       0.9655480       1.1341149
  moments of inertia/u·Å² :        0.4485756E+03   0.6735388E+03   0.9779987E+03
rotational constants/cm⁻¹ :        0.3758036E-01   0.2502845E-01   0.1723686E-01

 * 18 selected distances

     #   Z          #   Z                                           value/Å
     2   6          3   8                                         1.2084413
     2   6          4   8                                         1.3358548
     5   6          6   6                                         1.3877483
     6   6          7   6                                         1.3820250
     7   6          8   6                                         1.3851395
     8   6          9   6                                         1.3816511
     5   6         10   6                                         1.3923637
     9   6         10   6                                         1.3926100 (max)
    11   6         12   8                                         1.1990055
    11   6         13   8                                         1.3316908
     1   6         14   1                                         1.0860327
     1   6         15   1                                         1.0894243
     1   6         16   1                                         1.0856221
     6   6         17   1                                         1.0790979
     7   6         18   1                                         1.0789932
     8   6         19   1                                         1.0788569
     9   6         20   1                                         1.0792752
    13   8         21   1                                         0.9799400 (min)
Note: The following floating-point exceptions are signalling: IEEE_UNDERFLOW_FLAG
normal termination of xtb

 * 4 distinct bonds (by element types)

   Z      Z             #   av. dist./Å        max./Å        min./Å
   1 H    6 C           7     1.0824718     1.0894243     1.0788569
   6 C    6 C           6     1.3869229     1.3926100     1.3816511
   1 H    8 O           1     0.9799400     0.9799400     0.9799400
   6 C    8 O           4     1.2687481     1.3358548     1.1990055


optimized geometry written to: xtbopt.xyz


           -------------------------------------------------
          | TOTAL ENERGY              -39.622405837985 Eh   |
          | GRADIENT NORM               0.000301363025 Eh/α |
          | HOMO-LUMO GAP               3.969933672572 eV   |
           -------------------------------------------------

------------------------------------------------------------------------
 * finished run on 2026/08/28 at 19:10:03.433     
------------------------------------------------------------------------
 total:
 * wall-time:     0 d,  0 h,  0 min,  0.314 sec
 *  cpu-time:     0 d,  0 h,  0 min,  0.270 sec
 * ratio c/w:     0.859 speedup
 SCF:
 * wall-time:     0 d,  0 h,  0 min,  0.039 sec
 *  cpu-time:     0 d,  0 h,  0 min,  0.034 sec
 * ratio c/w:     0.865 speedup
 ANC optimizer:
 * wall-time:     0 d,  0 h,  0 min,  0.255 sec
 *  cpu-time:     0 d,  0 h,  0 min,  0.224 sec
 * ratio c/w:     0.876 speedup

