      -----------------------------------------------------------      
     |                   =====================                   |     
     |                           x T B                           |     
     |                   =====================                   |     
     |                         S. Grimme                         |     
     |          Mulliken Center for Theoretical Chemistry        |     
     |                    University of Bonn                     |     
      -----------------------------------------------------------      

   * xtb version 6.7.1 (unknown) compiled by 'root@buildkitsandbox' on 2026-08-28

   xtb is free software: you can redistribute it and/or modify it under
   the terms of the GNU Lesser General Public License as published by
   the Free Software Foundation, either version 3 of the License, or
   (at your option) any later version.
   
   xtb is distributed in the hope that it will be useful,
   but WITHOUT ANY WARRANTY; without even the implied warranty of
   MERCHANTABILITY or FITNESS FOR A PARTICULAR PURPOSE.  See the
   GNU Lesser General Public License for more details.
   
   Cite this work as:
   * C. Bannwarth, E. Caldeweyher, S. Ehlert, A. Hansen, P. Pracht,
     J. Seibert, S. Spicher, S. Grimme, WIREs Comput. Mol. Sci., 2020, 11,
     e01493. DOI: 10.1002/wcms.1493
   
   for GFN2-xTB:
   * C. Bannwarth, S. Ehlert and S. Grimme., J. Chem. Theory Comput., 2019,
     15, 1652-1671. DOI: 10.1021/acs.jctc.8b01176
   for GFN1-xTB:
   * S. Grimme, C. Bannwarth, P. Shushkov, J. Chem. Theory Comput., 2017,
     13, 1989-2009. DOI: 10.1021/acs.jctc.7b00118
   for GFN0-xTB:
   * P. Pracht, E. Caldeweyher, S. Ehlert, S. Grimme, ChemRxiv, 2019, preprint.
     DOI: 10.26434/chemrxiv.8326202.v1
   for GFN-FF:
   * S. Spicher and S. Grimme, Angew. Chem. Int. Ed., 2020, 59, 15665-15673.
     DOI: 10.1002/anie.202004239
   
   for ALPB and GBSA implicit solvation:
   * S. Ehlert, M. Stahn, S. Spicher, S. Grimme, J. Chem. Theory Comput.,
     2021, 17, 4250-4261. DOI: 10.1021/acs.jctc.1c00471
   
   for ddCOSMO and CPCM-X implicit solvation:
   * M. Stahn, S. Ehlert, S. Grimme, J. Phys. Chem. A,
     2023, XX, XXXX-XXXX. DOI: 10.1021/acs.jpca.3c04382
   
   for DFT-D4:
   * E. Caldeweyher, C. Bannwarth and S. Grimme, J. Chem. Phys., 2017,
     147, 034112. DOI: 10.1063/1.4993215
   * E. Caldeweyher, S. Ehlert, A. Hansen, H. Neugebauer, S. Spicher,
     C. Bannwarth and S. Grimme, J. Chem. Phys., 2019, 150, 154122.
     DOI: 10.1063/1.5090222
   * E. Caldeweyher, J.-M. Mewes, S. Ehlert and S. Grimme, Phys. Chem. Chem. Phys.
     2020, 22, 8499-8512. DOI: 10.1039/D0CP00502A
   
   for sTDA-xTB:
   * S. Grimme and C. Bannwarth, J. Chem. Phys., 2016, 145, 054103.
     DOI: 10.1063/1.4959605
   
   in the mass-spec context:
   * V. Asgeirsson, C. Bauer and S. Grimme, Chem. Sci., 2017, 8, 4879.
     DOI: 10.1039/c7sc00601b
   * J. Koopman and S. Grimme, ACS Omega 2019, 4, 12, 15120-15133.
     DOI: 10.1021/acsomega.9b02011
   
   for metadynamics refer to:
   * S. Grimme, J. Chem. Theory Comput., 2019, 155, 2847-2862
     DOI: 10.1021/acs.jctc.9b00143
   
   for SPH calculations refer to:
   * S. Spicher and S. Grimme, J. Chem. Theory Comput., 2021, 17, 1701-1714
     DOI: 10.1021/acs.jctc.0c01306
   
   for ONIOM refer to:
   * C. Plett, A. Katbashev, S. Ehlert, S. Grimme, M. Bursch,
     Phys. Chem. Chem. Phys., 2023, 25, 17860-17868. DOI: 10.1039/D3CP02178E
   
   for DIPRO refer to:
   * J. Kohn, N. Gildemeister, S. Grimme, D. Fazzi, A. Hansen,
     J. Chem. Phys. 159, 144106 (2023). DOI: 10.1063/5.0167484
   
   for PTB refer to:
   * S. Grimme, M. Mueller, A. Hansen, J. Chem. Phys., 2023, 158, 124111.
     DOI: 10.1063/5.0137838
   
   with help from (in alphabetical order)
   P. Atkinson, C. Bannwarth, F. Bohle, G. Brandenburg, E. Caldeweyher,
   M. Checinski, S. Dohm, S. Ehlert, S. Ehrlich, M. Friede, T. Froitzheim,
   I. Gerasimov, C. Hölzer, A. Katbashev, J. Kohn, J. Koopman, C. Lavigne,
   S. Lehtola, F. März, M. Müller, F. Musil, H. Neugebauer, J. Pisarek,
   C. Plett, P. Pracht, F. Pultar, J. Seibert, P. Shushkov, S. Spicher,
   M. Stahn, M. Steiner, T. Strunk, J. Stückrath, T. Rose, and J. Unsleber
   
 * started run on 2026/08/28 at 19:23:41.134     
   ID    Z sym.   atoms
    1    6 C      1-40
    2    1 H      41-96

           -------------------------------------------------
          |                Calculation Setup                |
           -------------------------------------------------

          program call               : xtb opt.xyz --gfn 2 --hess --norestart
          hostname                   : 756d39058c4f
          coordinate file            : opt.xyz
          random seed                :            1963562920


           -------------------------------------------------
          |                 G F N 2 - x T B                 |
           -------------------------------------------------

        Reference                      10.1021/acs.jctc.8b01176
      * Hamiltonian:
        H0-scaling (s, p, d)           1.850000    2.230000    2.230000
        zeta-weighting                 0.500000
      * Dispersion:
        s8                             2.700000
        a1                             0.520000
        a2                             5.000000
        s9                             5.000000
      * Repulsion:
        kExp                           1.500000    1.000000
        rExp                           1.000000
      * Coulomb:
        alpha                          2.000000
        third order                    shell-resolved
        anisotropic                    true
        a3                             3.000000
        a5                             4.000000
        cn-shift                       1.200000
        cn-exp                         4.000000
        max-rad                        5.000000


          ...................................................
          :                      SETUP                      :
          :.................................................:
          :  # basis functions                 216          :
          :  # atomic orbitals                 216          :
          :  # shells                          136          :
          :  # electrons                       216          :
          :  max. iterations                   250          :
          :  Hamiltonian                  GFN2-xTB          :
          :  restarted?                      false          :
          :  GBSA solvation                  false          :
          :  PC potential                    false          :
          :  electronic temp.          300.0000000     K    :
          :  accuracy                    1.0000000          :
          :  -> integral cutoff          0.2500000E+02      :
          :  -> integral neglect         0.1000000E-07      :
          :  -> SCF convergence          0.1000000E-05 Eh   :
          :  -> wf. convergence          0.1000000E-03 e    :
          :  Broyden damping             0.4000000          :
          :  net charge                          0          :
          :  unpaired electrons                  0          :
          ...................................................

 iter      E             dE          RMSdq      gap      omega  full diag
   1   -115.9316761 -0.115932E+03  0.340E+00    1.12       0.0  T
   2   -116.0497425 -0.118066E+00  0.203E+00    1.11       1.0  T
   3   -115.9988462  0.508962E-01  0.107E+00    1.15       1.0  T
   4   -116.0463029 -0.474567E-01  0.526E-01    1.10       1.0  T
   5   -116.0642446 -0.179417E-01  0.162E-01    1.10       1.0  T
   6   -116.0664300 -0.218538E-02  0.629E-02    1.10       1.0  T
   7   -116.0666328 -0.202817E-03  0.274E-02    1.10       1.0  T
   8   -116.0666452 -0.124652E-04  0.140E-02    1.10       1.0  T
   9   -116.0666520 -0.681596E-05  0.713E-03    1.10       1.4  T
  10   -116.0666556 -0.351463E-05  0.185E-03    1.10       5.5  T
  11   -116.0666558 -0.267079E-06  0.601E-04    1.10      17.0  T
  12   -116.0666558 -0.803942E-08  0.325E-04    1.10      31.4  T

   *** convergence criteria satisfied after 12 iterations ***

         #    Occupation            Energy/Eh            Energy/eV
      -------------------------------------------------------------
         1        2.0000           -0.6354046             -17.2902
       ...           ...                  ...                  ...
       102        2.0000           -0.3975068             -10.8167
       103        2.0000           -0.3956162             -10.7653
       104        2.0000           -0.3820691             -10.3966
       105        2.0000           -0.3724188             -10.1340
       106        2.0000           -0.3611295              -9.8268
       107        2.0000           -0.3464265              -9.4267
       108        2.0000           -0.3249672              -8.8428 (HOMO)
       109                         -0.2845525              -7.7431 (LUMO)
       110                         -0.2579116              -7.0181
       111                         -0.2309811              -6.2853
       112                         -0.2055489              -5.5933
       113                         -0.1857566              -5.0547
       ...                                ...                  ...
       216                          0.7109566              19.3461
      -------------------------------------------------------------
                  HL-Gap            0.0404147 Eh            1.0997 eV
             Fermi-level           -0.3047598 Eh           -8.2929 eV

 SCC (total)                   0 d,  0 h,  0 min,  0.478 sec
 SCC setup                      ...        0 min,  0.001 sec (  0.122%)
 Dispersion                     ...        0 min,  0.003 sec (  0.622%)
 classical contributions        ...        0 min,  0.000 sec (  0.042%)
 integral evaluation            ...        0 min,  0.024 sec (  4.918%)
 iterations                     ...        0 min,  0.362 sec ( 75.852%)
 molecular gradient             ...        0 min,  0.084 sec ( 17.649%)
 printout                       ...        0 min,  0.004 sec (  0.789%)

         :::::::::::::::::::::::::::::::::::::::::::::::::::::
         ::                     SUMMARY                     ::
         :::::::::::::::::::::::::::::::::::::::::::::::::::::
         :: total energy            -114.093344427199 Eh    ::
         :: gradient norm              0.000645651915 Eh/a0 ::
         :: HOMO-LUMO gap              1.099740415926 eV    ::
         ::.................................................::
         :: SCC energy              -116.066860130877 Eh    ::
         :: -> isotropic ES            0.016469589880 Eh    ::
         :: -> anisotropic ES          0.028094061308 Eh    ::
         :: -> anisotropic XC          0.070911817203 Eh    ::
         :: -> dispersion             -0.093906990209 Eh    ::
         :: repulsion energy           1.973515703678 Eh    ::
         :: add. restraining           0.000000000000 Eh    ::
         :: total charge              -0.000000000000 e     ::
         :::::::::::::::::::::::::::::::::::::::::::::::::::::

           ------------------------------------------------- 
          |                Numerical Hessian                |
           ------------------------------------------------- 
step length          :   0.00500
SCC accuracy         :   0.30000
Hessian scale factor :   1.00000
frozen atoms in %    :   0.00000    0
RMS gradient         :   0.00065
estimated CPU  time      3.21 min
estimated wall time      3.29 min

writing file <hessian>, containing the non-mass-weighted Hessian matrix in atomic units (Eₕ/Bohr²).

 projected vibrational frequencies (cm⁻¹)
eigval :       -0.00    -0.00     0.00     0.00     0.00     0.00
eigval :        4.93     6.06     9.57    11.51    16.70    23.89
eigval :       24.55    36.65    40.33    47.72    52.80    59.07
eigval :       61.22    68.01    77.62    81.23   101.58   102.69
eigval :      108.34   109.09   115.00   120.46   123.52   128.01
eigval :      145.42   156.32   160.65   171.55   178.56   185.26
eigval :      196.95   202.46   210.37   215.04   226.64   229.61
eigval :      234.77   236.15   240.79   246.95   254.30   257.99
eigval :      258.54   265.61   272.14   283.12   297.62   307.50
eigval :      307.73   322.44   342.31   350.15   352.02   355.27
eigval :      371.98   374.09   379.46   388.35   388.85   399.38
eigval :      407.58   422.85   428.06   441.92   461.32   464.28
eigval :      466.51   472.98   483.19   500.68   505.75   510.48
eigval :      516.66   521.63   525.79   569.34   583.67   592.42
eigval :      602.68   607.10   629.19   630.62   642.54   737.26
eigval :      739.06   771.64   771.94   784.54   785.93   792.26
eigval :      838.24   846.85   847.12   852.96   860.29   868.87
eigval :      869.02   871.61   878.09   891.75   906.53   916.86
eigval :      920.05   928.76   928.91   935.33   959.04   959.68
eigval :      970.92   973.17   974.74   975.37   984.32   986.59
eigval :      988.93   998.70   998.80  1013.84  1014.47  1014.65
eigval :     1019.71  1020.01  1021.61  1026.13  1028.68  1030.51
eigval :     1031.54  1032.81  1035.64  1053.78  1054.59  1060.78
eigval :     1061.01  1109.11  1109.30  1128.46  1128.53  1160.12
eigval :     1165.10  1170.80  1173.32  1185.32  1186.70  1191.08
eigval :     1193.69  1198.28  1205.28  1205.39  1207.49  1210.87
eigval :     1218.74  1220.47  1222.30  1229.41  1246.27  1252.50
eigval :     1258.24  1263.68  1266.08  1273.69  1278.14  1289.08
eigval :     1300.32  1303.94  1307.59  1310.11  1311.98  1314.76
eigval :     1330.40  1342.47  1342.48  1344.87  1347.13  1352.32
eigval :     1358.73  1358.77  1368.01  1373.79  1380.71  1401.21
eigval :     1401.86  1402.16  1402.17  1403.84  1404.01  1405.16
eigval :     1406.27  1417.59  1417.86  1424.55  1470.96  1471.36
eigval :     1479.28  1481.17  1482.84  1482.88  1485.54  1485.87
eigval :     1487.28  1487.62  1487.91  1491.48  1492.28  1492.73
eigval :     1494.48  1494.60  1495.90  1497.49  1498.47  1498.61
eigval :     1500.51  1500.51  1505.62  1511.46  1511.48  1517.45
eigval :     1517.63  1551.66  1558.80  1581.62  1595.64  1600.22
eigval :     1622.22  1623.95  1682.45  1686.99  2916.26  2916.55
eigval :     2957.90  2958.62  2960.31  2960.95  2967.55  2968.22
eigval :     2977.83  2978.55  2983.22  2985.02  2991.51  2991.98
eigval :     2994.29  2996.09  2997.73  2998.49  3005.70  3005.79
eigval :     3008.93  3009.27  3010.67  3011.13  3018.11  3018.68
eigval :     3022.87  3023.56  3026.66  3026.73  3029.62  3029.71
eigval :     3031.68  3032.01  3033.70  3040.86  3040.90  3041.01
eigval :     3041.39  3042.23  3042.62  3043.31  3049.47  3050.34
eigval :     3058.72  3060.09  3060.42  3062.91  3063.15  3071.11
eigval :     3075.09  3080.30  3082.49  3086.93  3095.53  3099.00
           -------------------------------------------------
          |                Property Printout                |
           -------------------------------------------------

    * Orbital Energies and Occupations

         #    Occupation            Energy/Eh            Energy/eV
      -------------------------------------------------------------
         1        2.0000           -0.6354033             -17.2902
       ...           ...                  ...                  ...
        96        2.0000           -0.4163325             -11.3290
        97        2.0000           -0.4128956             -11.2355
        98        2.0000           -0.4114917             -11.1973
        99        2.0000           -0.4082420             -11.1088
       100        2.0000           -0.4054781             -11.0336
       101        2.0000           -0.3993858             -10.8678
       102        2.0000           -0.3975062             -10.8167
       103        2.0000           -0.3956156             -10.7652
       104        2.0000           -0.3820684             -10.3966
       105        2.0000           -0.3724182             -10.1340
       106        2.0000           -0.3611287              -9.8268
       107        2.0000           -0.3464260              -9.4267
       108        2.0000           -0.3249666              -8.8428 (HOMO)
       109                         -0.2845518              -7.7430 (LUMO)
       110                         -0.2579112              -7.0181
       111                         -0.2309801              -6.2853
       112                         -0.2055481              -5.5932
       113                         -0.1857557              -5.0547
       114                         -0.1688948              -4.5959
       115                         -0.1512696              -4.1163
       116                         -0.1319029              -3.5893
       117                         -0.1120558              -3.0492
       118                         -0.0962323              -2.6186
       119                         -0.0851284              -2.3165
       ...                                ...                  ...
       216                          0.7109557              19.3461
      -------------------------------------------------------------
                  HL-Gap            0.0404148 Eh            1.0997 eV
             Fermi-level           -0.3047592 Eh           -8.2929 eV

     #   Z          covCN         q      C6AA      α(0)
     1   6          3.758    -0.108    22.623     6.781
     2   6          2.949     0.000    28.019     8.682
     3   6          2.958    -0.014    28.362     8.735
     4   6          3.905     0.023    20.133     6.378
     5   6          3.816    -0.063    21.702     6.630
     6   6          3.805    -0.054    21.537     6.607
     7   6          3.814    -0.060    21.648     6.622
     8   6          3.761    -0.104    22.525     6.766
     9   6          3.761    -0.103    22.511     6.763
    10   6          2.901    -0.038    28.942     8.821
    11   6          2.902    -0.047    29.175     8.856
    12   6          2.947     0.009    27.817     8.650
    13   6          2.907    -0.049    29.228     8.865
    14   6          2.896    -0.037    28.925     8.818
    15   6          2.907    -0.046    29.137     8.851
    16   6          2.946     0.010    27.796     8.647
    17   6          2.908    -0.048    29.189     8.859
    18   6          2.901    -0.039    28.957     8.823
    19   6          2.900    -0.038    28.933     8.819
    20   6          2.913    -0.047    29.165     8.856
    21   6          2.946     0.010    27.793     8.647
    22   6          3.757    -0.104    22.549     6.770
    23   6          2.914    -0.046    29.145     8.853
    24   6          2.895    -0.038    28.934     8.819
    25   6          2.913    -0.049    29.210     8.863
    26   6          2.946     0.009    27.826     8.652
    27   6          3.757    -0.104    22.543     6.769
    28   6          2.908    -0.048    29.192     8.859
    29   6          2.901    -0.040    28.994     8.829
    30   6          2.957    -0.015    28.393     8.740
    31   6          2.949    -0.000    28.036     8.684
    32   6          3.814    -0.060    21.646     6.622
    33   6          3.806    -0.054    21.534     6.606
    34   6          3.816    -0.063    21.698     6.630
    35   6          3.906     0.023    20.134     6.378
    36   6          3.761    -0.103    22.517     6.765
    37   6          3.761    -0.102    22.500     6.762
    38   6          3.758    -0.108    22.615     6.780
    39   6          3.759    -0.105    22.557     6.771
    40   6          3.759    -0.105    22.555     6.771
    41   1          0.925     0.043     2.404     2.424
    42   1          0.924     0.041     2.442     2.444
    43   1          0.924     0.038     2.481     2.463
    44   1          0.924     0.029     2.596     2.520
    45   1          0.924     0.033     2.539     2.492
    46   1          0.924     0.032     2.562     2.503
    47   1          0.924     0.026     2.647     2.544
    48   1          0.924     0.036     2.505     2.475
    49   1          0.924     0.037     2.493     2.469
    50   1          0.925     0.033     2.548     2.496
    51   1          0.925     0.033     2.547     2.496
    52   1          0.925     0.037     2.486     2.466
    53   1          0.925     0.033     2.543     2.494
    54   1          0.925     0.035     2.512     2.478
    55   1          0.925     0.033     2.546     2.495
    56   1          0.926     0.036     2.496     2.471
    57   1          0.925     0.034     2.528     2.487
    58   1          0.925     0.028     2.610     2.526
    59   1          0.926     0.034     2.535     2.490
    60   1          0.925     0.028     2.619     2.531
    61   1          0.925     0.029     2.605     2.524
    62   1          0.926     0.032     2.561     2.503
    63   1          0.925     0.028     2.619     2.530
    64   1          0.925     0.027     2.624     2.533
    65   1          0.925     0.041     2.434     2.440
    66   1          0.925     0.042     2.416     2.431
    67   1          0.925     0.043     2.414     2.430
    68   1          0.925     0.026     2.640     2.541
    69   1          0.926     0.033     2.546     2.495
    70   1          0.925     0.027     2.627     2.535
    71   1          0.925     0.041     2.440     2.443
    72   1          0.925     0.043     2.415     2.430
    73   1          0.924     0.042     2.427     2.436
    74   1          0.925     0.031     2.567     2.506
    75   1          0.926     0.039     2.468     2.457
    76   1          0.924     0.036     2.504     2.475
    77   1          0.924     0.035     2.510     2.478
    78   1          0.924     0.025     2.653     2.547
    79   1          0.924     0.032     2.563     2.503
    80   1          0.924     0.033     2.544     2.494
    81   1          0.924     0.029     2.603     2.523
    82   1          0.925     0.032     2.551     2.498
    83   1          0.925     0.032     2.554     2.499
    84   1          0.925     0.036     2.501     2.473
    85   1          0.925     0.033     2.540     2.492
    86   1          0.925     0.034     2.527     2.486
    87   1          0.925     0.032     2.555     2.500
    88   1          0.925     0.042     2.418     2.432
    89   1          0.924     0.041     2.442     2.444
    90   1          0.924     0.037     2.489     2.467
    91   1          0.924     0.043     2.412     2.429
    92   1          0.925     0.036     2.502     2.474
    93   1          0.925     0.043     2.412     2.429
    94   1          0.925     0.037     2.492     2.469
    95   1          0.925     0.043     2.413     2.429
    96   1          0.925     0.043     2.409     2.427

 Mol. C6AA /au·bohr⁶  :      84486.125214
 Mol. C8AA /au·bohr⁸  :    1944422.713217
 Mol. α(0) /au        :        452.363747


Wiberg/Mayer (AO) data.
largest (>0.10) Wiberg bond orders for each atom

 ---------------------------------------------------------------------------
     #   Z sym  total        # sym  WBO       # sym  WBO       # sym  WBO
 ---------------------------------------------------------------------------
     1   6      3.995 --     2      1.024    41      0.979    43      0.977
                            42      0.968
     2   6      3.964 --     3      1.769     1      1.024     7      1.013
     3   6      3.982 --     2      1.769    10      1.095     4      0.969
     4   6      3.986 --     9      0.989     8      0.988     5      0.986
                             3      0.969
     5   6      3.997 --     6      1.009     4      0.986    45      0.976
                            44      0.975
     6   6      3.999 --     5      1.009     7      1.007    47      0.977
                            46      0.975
     7   6      3.997 --     2      1.013     6      1.007    48      0.966
                            49      0.958
     8   6      3.996 --     4      0.988    50      0.987    51      0.985
                            52      0.982
     9   6      3.995 --     4      0.989    55      0.985    54      0.984
                            53      0.984
    10   6      3.946 --    11      1.714     3      1.095    56      0.951
    11   6      3.986 --    10      1.714    12      1.168    57      0.961
    12   6      3.908 --    13      1.589    11      1.168    40      1.022
    13   6      3.979 --    12      1.589    14      1.245    58      0.958
    14   6      3.949 --    15      1.593    13      1.245    59      0.957
    15   6      3.973 --    14      1.593    16      1.224    60      0.963
    16   6      3.912 --    17      1.540    15      1.224    39      1.022
    17   6      3.929 --    16      1.540    18      1.271    61      0.958
    18   6      3.927 --    19      1.561    17      1.271    62      0.962
    19   6      3.953 --    18      1.561    20      1.267    63      0.957
    20   6      3.931 --    21      1.545    19      1.267    64      0.961
    21   6      3.911 --    20      1.545    23      1.218    22      1.024
    22   6      3.996 --    21      1.024    65      0.979    67      0.971
                            66      0.971
    23   6      3.940 --    24      1.604    21      1.218    68      0.962
    24   6      3.918 --    23      1.604    25      1.234    69      0.956
    25   6      3.964 --    26      1.597    24      1.234    70      0.961
    26   6      3.913 --    25      1.597    28      1.165    27      1.025
    27   6      3.996 --    26      1.025    71      0.979    72      0.972
                            73      0.969
    28   6      3.987 --    29      1.720    26      1.165    74      0.961
    29   6      3.915 --    28      1.720    30      1.090    75      0.953
    30   6      3.983 --    31      1.774    29      1.090    35      0.969
    31   6      3.950 --    30      1.774    38      1.024    32      1.012
    32   6      3.997 --    31      1.012    33      1.007    77      0.967
                            76      0.959
    33   6      3.999 --    34      1.009    32      1.007    78      0.977
                            79      0.975
    34   6      3.997 --    33      1.009    35      0.986    80      0.976
                            81      0.975
    35   6      3.986 --    37      0.989    36      0.988    34      0.986
                            30      0.969
    36   6      3.996 --    35      0.988    82      0.987    83      0.985
                            84      0.982
    37   6      3.995 --    35      0.989    87      0.985    86      0.984
                            85      0.984
    38   6      3.995 --    31      1.024    88      0.980    90      0.977
                            89      0.969
    39   6      3.996 --    16      1.022    92      0.985    93      0.973
                            91      0.972
    40   6      3.996 --    12      1.022    94      0.985    96      0.972
                            95      0.971
    41   1      0.998 --     1      0.979
    42   1      0.996 --     1      0.968
    43   1      0.997 --     1      0.977
    44   1      0.998 --     5      0.975
    45   1      0.999 --     5      0.976
    46   1      0.999 --     6      0.975
    47   1      0.998 --     6      0.977
    48   1      0.997 --     7      0.966
    49   1      0.997 --     7      0.958
    50   1      0.999 --     8      0.987
    51   1      0.998 --     8      0.985
    52   1      0.998 --     8      0.982
    53   1      0.999 --     9      0.984
    54   1      0.999 --     9      0.984
    55   1      0.998 --     9      0.985
    56   1      0.999 --    10      0.951
    57   1      0.998 --    11      0.961
    58   1      0.999 --    13      0.958
    59   1      0.999 --    14      0.957
    60   1      0.999 --    15      0.963
    61   1      0.999 --    17      0.958
    62   1      0.999 --    18      0.962
    63   1      0.999 --    19      0.957
    64   1      0.999 --    20      0.961
    65   1      0.998 --    22      0.979
    66   1      0.995 --    22      0.971
    67   1      0.995 --    22      0.971
    68   1      0.999 --    23      0.962
    69   1      0.999 --    24      0.956
    70   1      0.999 --    25      0.961
    71   1      0.998 --    27      0.979
    72   1      0.995 --    27      0.972
    73   1      0.995 --    27      0.969
    74   1      0.999 --    28      0.961
    75   1      0.998 --    29      0.953
    76   1      0.997 --    32      0.959
    77   1      0.997 --    32      0.967
    78   1      0.998 --    33      0.977
    79   1      0.999 --    33      0.975
    80   1      0.999 --    34      0.976
    81   1      0.998 --    34      0.975
    82   1      0.999 --    36      0.987
    83   1      0.998 --    36      0.985
    84   1      0.998 --    36      0.982
    85   1      0.999 --    37      0.984
    86   1      0.999 --    37      0.984
    87   1      0.998 --    37      0.985
    88   1      0.998 --    38      0.980
    89   1      0.997 --    38      0.969
    90   1      0.997 --    38      0.977
    91   1      0.994 --    39      0.972
    92   1      0.999 --    39      0.985
    93   1      0.995 --    39      0.973
    94   1      0.999 --    40      0.985
    95   1      0.996 --    40      0.971
    96   1      0.996 --    40      0.972
 ---------------------------------------------------------------------------

Topologies differ in total number of bonds
Writing topology from bond orders to xtbtopo.mol

molecular dipole:
                 x           y           z       tot (Debye)
 q only:        0.272       0.134      -0.086
   full:        0.295       0.086      -0.095       0.818
molecular quadrupole (traceless):
                xx          xy          yy          xz          yz          zz
 q only:       -0.818     -14.685      14.810       3.277      -4.414     -13.992
  q+dip:        3.528     -15.055      21.689       5.533      -7.703     -25.218
   full:        0.234     -14.956      18.408       4.188      -5.626     -18.642

           -------------------------------------------------
          |               Frequency Printout                |
           -------------------------------------------------
 projected vibrational frequencies (cm⁻¹)
eigval :       -0.00    -0.00     0.00     0.00     0.00     0.00
eigval :        4.93     6.06     9.57    11.51    16.70    23.89
eigval :       24.55    36.65    40.33    47.72    52.80    59.07
eigval :       61.22    68.01    77.62    81.23   101.58   102.69
eigval :      108.34   109.09   115.00   120.46   123.52   128.01
eigval :      145.42   156.32   160.65   171.55   178.56   185.26
eigval :      196.95   202.46   210.37   215.04   226.64   229.61
eigval :      234.77   236.15   240.79   246.95   254.30   257.99
eigval :      258.54   265.61   272.14   283.12   297.62   307.50
eigval :      307.73   322.44   342.31   350.15   352.02   355.27
eigval :      371.98   374.09   379.46   388.35   388.85   399.38
eigval :      407.58   422.85   428.06   441.92   461.32   464.28
eigval :      466.51   472.98   483.19   500.68   505.75   510.48
eigval :      516.66   521.63   525.79   569.34   583.67   592.42
eigval :      602.68   607.10   629.19   630.62   642.54   737.26
eigval :      739.06   771.64   771.94   784.54   785.93   792.26
eigval :      838.24   846.85   847.12   852.96   860.29   868.87
eigval :      869.02   871.61   878.09   891.75   906.53   916.86
eigval :      920.05   928.76   928.91   935.33   959.04   959.68
eigval :      970.92   973.17   974.74   975.37   984.32   986.59
eigval :      988.93   998.70   998.80  1013.84  1014.47  1014.65
eigval :     1019.71  1020.01  1021.61  1026.13  1028.68  1030.51
eigval :     1031.54  1032.81  1035.64  1053.78  1054.59  1060.78
eigval :     1061.01  1109.11  1109.30  1128.46  1128.53  1160.12
eigval :     1165.10  1170.80  1173.32  1185.32  1186.70  1191.08
eigval :     1193.69  1198.28  1205.28  1205.39  1207.49  1210.87
eigval :     1218.74  1220.47  1222.30  1229.41  1246.27  1252.50
eigval :     1258.24  1263.68  1266.08  1273.69  1278.14  1289.08
eigval :     1300.32  1303.94  1307.59  1310.11  1311.98  1314.76
eigval :     1330.40  1342.47  1342.48  1344.87  1347.13  1352.32
eigval :     1358.73  1358.77  1368.01  1373.79  1380.71  1401.21
eigval :     1401.86  1402.16  1402.17  1403.84  1404.01  1405.16
eigval :     1406.27  1417.59  1417.86  1424.55  1470.96  1471.36
eigval :     1479.28  1481.17  1482.84  1482.88  1485.54  1485.87
eigval :     1487.28  1487.62  1487.91  1491.48  1492.28  1492.73
eigval :     1494.48  1494.60  1495.90  1497.49  1498.47  1498.61
eigval :     1500.51  1500.51  1505.62  1511.46  1511.48  1517.45
eigval :     1517.63  1551.66  1558.80  1581.62  1595.64  1600.22
eigval :     1622.22  1623.95  1682.45  1686.99  2916.26  2916.55
eigval :     2957.90  2958.62  2960.31  2960.95  2967.55  2968.22
eigval :     2977.83  2978.55  2983.22  2985.02  2991.51  2991.98
eigval :     2994.29  2996.09  2997.73  2998.49  3005.70  3005.79
eigval :     3008.93  3009.27  3010.67  3011.13  3018.11  3018.68
eigval :     3022.87  3023.56  3026.66  3026.73  3029.62  3029.71
eigval :     3031.68  3032.01  3033.70  3040.86  3040.90  3041.01
eigval :     3041.39  3042.23  3042.62  3043.31  3049.47  3050.34
eigval :     3058.72  3060.09  3060.42  3062.91  3063.15  3071.11
eigval :     3075.09  3080.30  3082.49  3086.93  3095.53  3099.00
 reduced masses (amu)
    1:      4.83    2:      4.73    3:      4.75    4:      5.39    5:      5.55    6:      4.62
    7:      4.87    8:      3.50    9:      4.94   10:      3.98   11:      3.57   12:      4.47
   13:      3.91   14:      3.79   15:      2.86   16:      3.07   17:      3.44   18:      3.22
   19:      3.49   20:      3.35   21:      3.38   22:      3.33   23:      1.57   24:      3.99
   25:      1.43   26:      2.18   27:      1.37   28:      2.07   29:      1.15   30:      1.74
   31:      1.74   32:      2.84   33:      2.21   34:      2.27   35:      2.70   36:      2.09
   37:      1.25   38:      1.52   39:      1.87   40:      2.17   41:      1.80   42:      1.39
   43:      1.46   44:      1.35   45:      1.64   46:      1.57   47:      2.08   48:      2.10
   49:      1.78   50:      3.26   51:      2.43   52:      2.76   53:      2.88   54:      2.28
   55:      2.62   56:      2.79   57:      3.35   58:      2.89   59:      2.93   60:      2.75
   61:      2.17   62:      2.14   63:      3.37   64:      2.72   65:      2.69   66:      3.25
   67:      3.38   68:      2.99   69:      3.36   70:      3.44   71:      3.40   72:      2.76
   73:      3.28   74:      2.92   75:      3.75   76:      3.46   77:      3.06   78:      3.42
   79:      3.36   80:      3.38   81:      3.17   82:      3.13   83:      3.08   84:      3.68
   85:      2.93   86:      3.36   87:      4.06   88:      4.25   89:      3.53   90:      3.41
   91:      3.29   92:      1.95   93:      1.99   94:      1.88   95:      1.97   96:      2.03
   97:      1.46   98:      2.19   99:      2.24  100:      1.37  101:      1.32  102:      1.62
  103:      1.59  104:      1.30  105:      3.69  106:      3.12  107:      2.81  108:      2.21
  109:      2.56  110:      2.03  111:      2.00  112:      2.73  113:      1.41  114:      1.42
  115:      1.12  116:      1.24  117:      1.67  118:      1.42  119:      1.15  120:      1.16
  121:      1.18  122:      1.36  123:      1.35  124:      1.51  125:      1.28  126:      1.28
  127:      1.63  128:      1.64  129:      1.49  130:      1.43  131:      1.40  132:      1.42
  133:      1.49  134:      1.38  135:      1.36  136:      1.75  137:      1.73  138:      1.70
  139:      1.70  140:      1.57  141:      1.57  142:      1.45  143:      1.45  144:      3.21
  145:      2.84  146:      1.91  147:      1.51  148:      1.66  149:      1.76  150:      1.60
  151:      2.54  152:      1.73  153:      2.37  154:      2.32  155:      2.29  156:      2.18
  157:      1.72  158:      1.93  159:      1.91  160:      2.11  161:      1.30  162:      1.90
  163:      1.70  164:      1.86  165:      1.60  166:      1.70  167:      1.90  168:      1.73
  169:      1.44  170:      1.52  171:      2.13  172:      1.77  173:      1.77  174:      1.56
  175:      3.76  176:      1.47  177:      1.47  178:      1.76  179:      1.80  180:      2.14
  181:      1.62  182:      1.62  183:      1.81  184:      1.75  185:      1.63  186:      1.27
  187:      1.30  188:      1.21  189:      1.22  190:      1.24  191:      1.24  192:      1.23
  193:      1.23  194:      1.21  195:      1.21  196:      2.46  197:      1.09  198:      1.09
  199:      1.06  200:      1.06  201:      1.08  202:      1.08  203:      1.13  204:      1.07
  205:      1.16  206:      1.09  207:      1.16  208:      1.13  209:      1.06  210:      1.07
  211:      1.08  212:      1.08  213:      1.11  214:      1.11  215:      1.08  216:      1.08
  217:      1.07  218:      1.07  219:      2.04  220:      1.06  221:      1.06  222:      1.06
  223:      1.07  224:      5.60  225:      6.41  226:      6.10  227:      7.22  228:      6.66
  229:      7.36  230:      7.38  231:      8.37  232:      8.46  233:      1.08  234:      1.08
  235:      1.06  236:      1.06  237:      1.09  238:      1.09  239:      1.08  240:      1.08
  241:      1.06  242:      1.06  243:      1.09  244:      1.09  245:      1.06  246:      1.06
  247:      1.09  248:      1.09  249:      1.09  250:      1.09  251:      1.05  252:      1.05
  253:      1.06  254:      1.05  255:      1.06  256:      1.06  257:      1.09  258:      1.09
  259:      1.08  260:      1.08  261:      1.08  262:      1.08  263:      1.07  264:      1.07
  265:      1.08  266:      1.07  267:      1.08  268:      1.06  269:      1.05  270:      1.06
  271:      1.08  272:      1.05  273:      1.05  274:      1.05  275:      1.07  276:      1.07
  277:      1.08  278:      1.08  279:      1.08  280:      1.08  281:      1.08  282:      1.07
  283:      1.07  284:      1.08  285:      1.08  286:      1.08  287:      1.08  288:      1.08
 IR intensities (km·mol⁻¹)
    1:      0.96    2:      0.21    3:      0.20    4:      0.10    5:      2.66    6:      0.13
    7:      1.61    8:      0.12    9:      1.18   10:      0.13   11:      0.49   12:      1.15
   13:      0.39   14:      2.05   15:      0.67   16:      0.57   17:      0.14   18:      0.66
   19:      0.71   20:      0.53   21:      0.07   22:      3.66   23:      0.37   24:      0.21
   25:      0.36   26:      2.97   27:      2.66   28:      0.73   29:      0.89   30:      0.72
   31:      0.58   32:      3.82   33:      0.65   34:      0.08   35:      0.10   36:      0.91
   37:      0.42   38:      0.61   39:      0.64   40:      1.52   41:      2.99   42:      0.46
   43:      0.17   44:      0.41   45:      2.07   46:      0.11   47:      0.71   48:      0.88
   49:      1.17   50:      2.90   51:      3.89   52:      5.51   53:      0.07   54:      0.76
   55:      2.08   56:      0.95   57:      6.72   58:      0.32   59:      0.24   60:      0.99
   61:      1.56   62:      1.91   63:      0.09   64:      2.52   65:      2.45   66:      0.54
   67:      1.80   68:      0.43   69:      1.60   70:      0.40   71:     10.17   72:      1.53
   73:      1.79   74:      1.06   75:      0.35   76:      0.76   77:      0.87   78:      0.16
   79:      0.10   80:      0.74   81:      0.38   82:      0.62   83:      4.29   84:      5.86
   85:      6.54   86:      0.39   87:      4.84   88:      0.41   89:      0.41   90:      0.88
   91:     15.47   92:     16.19   93:     16.28   94:      1.81   95:      1.23   96:      0.81
   97:      3.02   98:     17.07   99:      5.64  100:      3.35  101:      1.74  102:      1.37
  103:      0.94  104:      0.10  105:      2.69  106:     11.70  107:      4.61  108:      5.78
  109:      2.15  110:      6.29  111:     13.47  112:      0.85  113:      0.48  114:      1.44
  115:     14.55  116:      2.00  117:      5.90  118:      1.49  119:     16.24  120:     42.41
  121:     16.32  122:      3.71  123:      6.12  124:     33.45  125:      4.16  126:      1.35
  127:     54.44  128:     13.27  129:     12.53  130:      4.05  131:      7.24  132:      8.12
  133:      1.74  134:      0.37  135:      0.18  136:     30.16  137:     23.98  138:      4.58
  139:     30.04  140:      2.46  141:      2.01  142:      2.07  143:      2.49  144:      2.29
  145:     22.54  146:      7.88  147:      4.86  148:     19.71  149:     49.78  150:      2.00
  151:      0.49  152:      4.19  153:      1.83  154:      2.69  155:     12.21  156:     22.78
  157:      4.84  158:      9.38  159:      2.27  160:     10.01  161:      1.58  162:      5.86
  163:     41.49  164:     63.15  165:      7.66  166:     19.83  167:     19.50  168:      4.59
  169:      0.47  170:      5.69  171:     20.07  172:      1.67  173:      6.21  174:     37.87
  175:     37.78  176:      0.05  177:      0.58  178:      1.65  179:      0.50  180:     50.48
  181:      2.40  182:      0.12  183:      2.35  184:     16.78  185:     24.04  186:      9.53
  187:      6.45  188:      6.32  189:      5.33  190:      7.82  191:      3.01  192:      8.56
  193:     13.38  194:      1.29  195:      6.47  196:      6.85  197:     14.29  198:     22.26
  199:     10.83  200:      0.54  201:      9.99  202:      0.53  203:      9.89  204:      3.23
  205:     51.37  206:     11.48  207:     46.02  208:      2.71  209:     18.17  210:      3.20
  211:     29.02  212:      0.73  213:      6.79  214:      3.16  215:      0.24  216:     19.41
  217:      4.46  218:      0.75  219:    123.02  220:      0.18  221:     10.20  222:      6.70
  223:      6.40  224:      7.05  225:     34.24  226:     88.41  227:     22.57  228:     12.69
  229:     18.29  230:     26.56  231:    164.67  232:    115.22  233:     18.98  234:     43.96
  235:     40.51  236:     38.85  237:     46.77  238:     58.10  239:     77.91  240:     95.42
  241:    189.33  242:    107.64  243:     25.18  244:     18.61  245:     78.35  246:     75.48
  247:     44.11  248:     23.67  249:     29.26  250:     26.70  251:    128.33  252:     70.95
  253:     11.52  254:     29.70  255:     54.93  256:     19.05  257:      0.95  258:      0.31
  259:    177.30  260:    135.26  261:     32.62  262:     27.74  263:     60.37  264:     77.94
  265:     11.22  266:     14.87  267:     14.74  268:     12.07  269:      8.97  270:     70.27
  271:     52.54  272:     29.79  273:     37.71  274:     32.62  275:     23.99  276:     18.16
  277:     34.20  278:      4.22  279:     16.22  280:     29.76  281:     24.74  282:      8.94
  283:      3.74  284:    220.85  285:     97.83  286:     60.75  287:    117.48  288:     97.51
 Raman intensities (Ä⁴*amu⁻¹)
    1:      0.00    2:      0.00    3:      0.00    4:      0.00    5:      0.00    6:      0.00
    7:      0.00    8:      0.00    9:      0.00   10:      0.00   11:      0.00   12:      0.00
   13:      0.00   14:      0.00   15:      0.00   16:      0.00   17:      0.00   18:      0.00
   19:      0.00   20:      0.00   21:      0.00   22:      0.00   23:      0.00   24:      0.00
   25:      0.00   26:      0.00   27:      0.00   28:      0.00   29:      0.00   30:      0.00
   31:      0.00   32:      0.00   33:      0.00   34:      0.00   35:      0.00   36:      0.00
   37:      0.00   38:      0.00   39:      0.00   40:      0.00   41:      0.00   42:      0.00
   43:      0.00   44:      0.00   45:      0.00   46:      0.00   47:      0.00   48:      0.00
   49:      0.00   50:      0.00   51:      0.00   52:      0.00   53:      0.00   54:      0.00
   55:      0.00   56:      0.00   57:      0.00   58:      0.00   59:      0.00   60:      0.00
   61:      0.00   62:      0.00   63:      0.00   64:      0.00   65:      0.00   66:      0.00
   67:      0.00   68:      0.00   69:      0.00   70:      0.00   71:      0.00   72:      0.00
   73:      0.00   74:      0.00   75:      0.00   76:      0.00   77:      0.00   78:      0.00
   79:      0.00   80:      0.00   81:      0.00   82:      0.00   83:      0.00   84:      0.00
   85:      0.00   86:      0.00   87:      0.00   88:      0.00   89:      0.00   90:      0.00
   91:      0.00   92:      0.00   93:      0.00   94:      0.00   95:      0.00   96:      0.00
   97:      0.00   98:      0.00   99:      0.00  100:      0.00  101:      0.00  102:      0.00
  103:      0.00  104:      0.00  105:      0.00  106:      0.00  107:      0.00  108:      0.00
  109:      0.00  110:      0.00  111:      0.00  112:      0.00  113:      0.00  114:      0.00
  115:      0.00  116:      0.00  117:      0.00  118:      0.00  119:      0.00  120:      0.00
  121:      0.00  122:      0.00  123:      0.00  124:      0.00  125:      0.00  126:      0.00
  127:      0.00  128:      0.00  129:      0.00  130:      0.00  131:      0.00  132:      0.00
  133:      0.00  134:      0.00  135:      0.00  136:      0.00  137:      0.00  138:      0.00
  139:      0.00  140:      0.00  141:      0.00  142:      0.00  143:      0.00  144:      0.00
Refinement of some symmetry elements was terminated before convergence was reached.
Some symmetry elements may remain unidentified.
Molecule has no symmetry elements
It seems to be the C1 point group
  145:      0.00  146:      0.00  147:      0.00  148:      0.00  149:      0.00  150:      0.00
  151:      0.00  152:      0.00  153:      0.00  154:      0.00  155:      0.00  156:      0.00
  157:      0.00  158:      0.00  159:      0.00  160:      0.00  161:      0.00  162:      0.00
  163:      0.00  164:      0.00  165:      0.00  166:      0.00  167:      0.00  168:      0.00
  169:      0.00  170:      0.00  171:      0.00  172:      0.00  173:      0.00  174:      0.00
  175:      0.00  176:      0.00  177:      0.00  178:      0.00  179:      0.00  180:      0.00
  181:      0.00  182:      0.00  183:      0.00  184:      0.00  185:      0.00  186:      0.00
  187:      0.00  188:      0.00  189:      0.00  190:      0.00  191:      0.00  192:      0.00
  193:      0.00  194:      0.00  195:      0.00  196:      0.00  197:      0.00  198:      0.00
  199:      0.00  200:      0.00  201:      0.00  202:      0.00  203:      0.00  204:      0.00
  205:      0.00  206:      0.00  207:      0.00  208:      0.00  209:      0.00  210:      0.00
  211:      0.00  212:      0.00  213:      0.00  214:      0.00  215:      0.00  216:      0.00
  217:      0.00  218:      0.00  219:      0.00  220:      0.00  221:      0.00  222:      0.00
  223:      0.00  224:      0.00  225:      0.00  226:      0.00  227:      0.00  228:      0.00
  229:      0.00  230:      0.00  231:      0.00  232:      0.00  233:      0.00  234:      0.00
  235:      0.00  236:      0.00  237:      0.00  238:      0.00  239:      0.00  240:      0.00
  241:      0.00  242:      0.00  243:      0.00  244:      0.00  245:      0.00  246:      0.00
  247:      0.00  248:      0.00  249:      0.00  250:      0.00  251:      0.00  252:      0.00
  253:      0.00  254:      0.00  255:      0.00  256:      0.00  257:      0.00  258:      0.00
  259:      0.00  260:      0.00  261:      0.00  262:      0.00  263:      0.00  264:      0.00
  265:      0.00  266:      0.00  267:      0.00  268:      0.00  269:      0.00  270:      0.00
  271:      0.00  272:      0.00  273:      0.00  274:      0.00  275:      0.00  276:      0.00
  277:      0.00  278:      0.00  279:      0.00  280:      0.00  281:      0.00  282:      0.00
  283:      0.00  284:      0.00  285:      0.00  286:      0.00  287:      0.00  288:      0.00
 output can be read by thermo (or use thermo option).
 writing <g98.out> molden fake output.
 recommended (thermochemical) frequency scaling factor: 1.0
           -------------------------------------------------
          |             Thermodynamic Functions             |
           -------------------------------------------------

c1  symmetry found (for desy threshold:  0.10E+00) used in thermo

          ...................................................
          :                      SETUP                      :
          :.................................................:
          :  # frequencies                         282      :
          :  # imaginary freq.                       0      :
          :  linear?                             false      :
          :  only rotor calc.                    false      :
          :  symmetry                               c1      :
          :  rotational number                       1      :
          :  scaling factor                  1.0000000      :
          :  rotor cutoff                   50.0000000 cm⁻¹ :
          :  imag. cutoff                  -20.0000000 cm⁻¹ :
          :.................................................:

    mode    ω/cm⁻¹     T·S(HO)/kcal·mol⁻¹    T·S(FR)/kcal·mol⁻¹   T·S(vib)
   ------------------------------------------------------------------------
       1      4.93    -2.80717 (  0.01%)    -1.74266 ( 99.99%)    -1.74276
       2      6.06    -2.68557 (  0.02%)    -1.68187 ( 99.98%)    -1.68208
       3      9.57    -2.41455 (  0.13%)    -1.54635 ( 99.87%)    -1.54751
       4     11.51    -2.30527 (  0.28%)    -1.49170 ( 99.72%)    -1.49398
       5     16.70    -2.08489 (  1.23%)    -1.38147 ( 98.77%)    -1.39011
       6     23.89    -1.87287 (  4.95%)    -1.27538 ( 95.05%)    -1.30496
       7     24.55    -1.85665 (  5.49%)    -1.26726 ( 94.51%)    -1.29964
       8     36.65    -1.61966 ( 22.40%)    -1.14855 ( 77.60%)    -1.25409
       9     40.33    -1.56317 ( 29.74%)    -1.12023 ( 70.26%)    -1.25194
      10     47.72    -1.46379 ( 45.35%)    -1.07036 ( 54.65%)    -1.24879
      11     52.80    -1.40422 ( 55.42%)    -1.04043 ( 44.58%)    -1.24204
      12     59.07    -1.33806 ( 66.09%)    -1.00714 ( 33.91%)    -1.22583
      13     61.22    -1.31704 ( 69.21%)    -0.99656 ( 30.79%)    -1.21836
      14     68.01    -1.25521 ( 77.40%)    -0.96539 ( 22.60%)    -1.18970
      15     77.62    -1.17773 ( 85.31%)    -0.92626 ( 14.69%)    -1.14080
      16     81.23    -1.15116 ( 87.45%)    -0.91280 ( 12.55%)    -1.12123
      17    101.58    -1.02078 ( 94.46%)    -0.84656 (  5.54%)    -1.01112
      18    102.69    -1.01451 ( 94.68%)    -0.84336 (  5.32%)    -1.00540
      19    108.34    -0.98340 ( 95.66%)    -0.82747 (  4.34%)    -0.97664
      20    109.09    -0.97941 ( 95.77%)    -0.82543 (  4.23%)    -0.97291
      21    115.00    -0.94893 ( 96.55%)    -0.80981 (  3.45%)    -0.94413
      22    120.46    -0.92216 ( 97.12%)    -0.79606 (  2.88%)    -0.91852
      23    123.52    -0.90773 ( 97.39%)    -0.78864 (  2.61%)    -0.90462
      24    128.01    -0.88720 ( 97.73%)    -0.77805 (  2.27%)    -0.88472
      25    145.42    -0.81433 ( 98.62%)    -0.74028 (  1.38%)    -0.81331
      26    156.32    -0.77336 ( 98.96%)    -0.71887 (  1.04%)    -0.77280
      27    160.65    -0.75795 ( 99.07%)    -0.71078 (  0.93%)    -0.75751
      28    171.55    -0.72105 ( 99.28%)    -0.69132 (  0.72%)    -0.72084
      29    178.56    -0.69868 ( 99.39%)    -0.67946 (  0.61%)    -0.69856
      30    185.26    -0.67821 ( 99.47%)    -0.66855 (  0.53%)    -0.67816
      31    196.95    -0.64443 ( 99.59%)    -0.65043 (  0.41%)    -0.64446
      32    202.46    -0.62929 ( 99.63%)    -0.64225 (  0.37%)    -0.62934
      33    210.37    -0.60835 ( 99.68%)    -0.63089 (  0.32%)    -0.60842
      34    215.04    -0.59644 ( 99.71%)    -0.62439 (  0.29%)    -0.59652
      35    226.64    -0.56810 ( 99.76%)    -0.60883 (  0.24%)    -0.56819
      36    229.61    -0.56111 ( 99.78%)    -0.60497 (  0.22%)    -0.56121
      37    234.77    -0.54924 ( 99.79%)    -0.59838 (  0.21%)    -0.54934
      38    236.15    -0.54611 ( 99.80%)    -0.59665 (  0.20%)    -0.54621
      39    240.79    -0.53578 ( 99.81%)    -0.59089 (  0.19%)    -0.53589
      40    246.95    -0.52244 ( 99.83%)    -0.58341 (  0.17%)    -0.52254
      41    254.30    -0.50703 ( 99.85%)    -0.57471 (  0.15%)    -0.50713
      42    257.99    -0.49949 ( 99.86%)    -0.57044 (  0.14%)    -0.49959
      43    258.54    -0.49839 ( 99.86%)    -0.56982 (  0.14%)    -0.49849
      44    265.61    -0.48437 ( 99.87%)    -0.56182 (  0.13%)    -0.48447
      45    272.14    -0.47184 ( 99.89%)    -0.55463 (  0.11%)    -0.47193
      46    283.12    -0.45163 ( 99.90%)    -0.54292 (  0.10%)    -0.45172
      47    297.62    -0.42643 ( 99.92%)    -0.52812 (  0.08%)    -0.42652
   ------------------------------------------------------------------------

   temp. (K)  partition function   enthalpy   heat capacity  entropy
                                   cal/mol     cal/K/mol   cal/K/mol   J/K/mol
 298.15  VIB  0.135E+25            27928.079    160.829    180.583
         ROT  0.137E+09              888.727      2.981     40.218
         INT  0.186E+33            28816.806    163.809    220.801
         TR   0.381E+27             1481.212      4.968     44.728
         TOT                       30298.0187   168.7774   265.5281  1110.9695

       T/K    H(0)-H(T)+PV         H(T)/Eh          T*S/Eh         G(T)/Eh
   ------------------------------------------------------------------------
    298.15    0.482830E-01    0.884966E+00    0.126161E+00    0.758805E+00
   ------------------------------------------------------------------------

         :::::::::::::::::::::::::::::::::::::::::::::::::::::
         ::                  THERMODYNAMIC                  ::
         :::::::::::::::::::::::::::::::::::::::::::::::::::::
Note: The following floating-point exceptions are signalling: IEEE_UNDERFLOW_FLAG
normal termination of xtb
         :: total free energy        -113.334539637123 Eh   ::
         ::.................................................::
         :: total energy             -114.093344432689 Eh   ::
         :: zero point energy           0.836682791472 Eh   ::
         :: G(RRHO) w/o ZPVE           -0.077877995905 Eh   ::
         :: G(RRHO) contrib.            0.758804795567 Eh   ::
         :::::::::::::::::::::::::::::::::::::::::::::::::::::

           -------------------------------------------------
          | TOTAL ENERGY             -114.093344432689 Eh   |
          | TOTAL ENTHALPY           -113.208378675134 Eh   |
          | TOTAL FREE ENERGY        -113.334539637123 Eh   |
          | GRADIENT NORM               0.000646147873 Eh/α |
          | HOMO-LUMO GAP               1.099742534268 eV   |
           -------------------------------------------------

------------------------------------------------------------------------
 * finished run on 2026/08/28 at 19:26:21.391     
------------------------------------------------------------------------
 total:
 * wall-time:     0 d,  0 h,  2 min, 40.256 sec
 *  cpu-time:     0 d,  0 h,  2 min, 39.235 sec
 * ratio c/w:     0.994 speedup
 SCF:
 * wall-time:     0 d,  0 h,  0 min,  0.478 sec
 *  cpu-time:     0 d,  0 h,  0 min,  0.463 sec
 * ratio c/w:     0.968 speedup
 analytical hessian:
 * wall-time:     0 d,  0 h,  2 min, 39.658 sec
 *  cpu-time:     0 d,  0 h,  2 min, 38.696 sec
 * ratio c/w:     0.994 speedup

