      -----------------------------------------------------------      
     |                   =====================                   |     
     |                           x T B                           |     
     |                   =====================                   |     
     |                         S. Grimme                         |     
     |          Mulliken Center for Theoretical Chemistry        |     
     |                    University of Bonn                     |     
      -----------------------------------------------------------      

   * xtb version 6.7.1 (unknown) compiled by 'root@buildkitsandbox' on 2026-08-28

   xtb is free software: you can redistribute it and/or modify it under
   the terms of the GNU Lesser General Public License as published by
   the Free Software Foundation, either version 3 of the License, or
   (at your option) any later version.
   
   xtb is distributed in the hope that it will be useful,
   but WITHOUT ANY WARRANTY; without even the implied warranty of
   MERCHANTABILITY or FITNESS FOR A PARTICULAR PURPOSE.  See the
   GNU Lesser General Public License for more details.
   
   Cite this work as:
   * C. Bannwarth, E. Caldeweyher, S. Ehlert, A. Hansen, P. Pracht,
     J. Seibert, S. Spicher, S. Grimme, WIREs Comput. Mol. Sci., 2020, 11,
     e01493. DOI: 10.1002/wcms.1493
   
   for GFN2-xTB:
   * C. Bannwarth, S. Ehlert and S. Grimme., J. Chem. Theory Comput., 2019,
     15, 1652-1671. DOI: 10.1021/acs.jctc.8b01176
   for GFN1-xTB:
   * S. Grimme, C. Bannwarth, P. Shushkov, J. Chem. Theory Comput., 2017,
     13, 1989-2009. DOI: 10.1021/acs.jctc.7b00118
   for GFN0-xTB:
   * P. Pracht, E. Caldeweyher, S. Ehlert, S. Grimme, ChemRxiv, 2019, preprint.
     DOI: 10.26434/chemrxiv.8326202.v1
   for GFN-FF:
   * S. Spicher and S. Grimme, Angew. Chem. Int. Ed., 2020, 59, 15665-15673.
     DOI: 10.1002/anie.202004239
   
   for ALPB and GBSA implicit solvation:
   * S. Ehlert, M. Stahn, S. Spicher, S. Grimme, J. Chem. Theory Comput.,
     2021, 17, 4250-4261. DOI: 10.1021/acs.jctc.1c00471
   
   for ddCOSMO and CPCM-X implicit solvation:
   * M. Stahn, S. Ehlert, S. Grimme, J. Phys. Chem. A,
     2023, XX, XXXX-XXXX. DOI: 10.1021/acs.jpca.3c04382
   
   for DFT-D4:
   * E. Caldeweyher, C. Bannwarth and S. Grimme, J. Chem. Phys., 2017,
     147, 034112. DOI: 10.1063/1.4993215
   * E. Caldeweyher, S. Ehlert, A. Hansen, H. Neugebauer, S. Spicher,
     C. Bannwarth and S. Grimme, J. Chem. Phys., 2019, 150, 154122.
     DOI: 10.1063/1.5090222
   * E. Caldeweyher, J.-M. Mewes, S. Ehlert and S. Grimme, Phys. Chem. Chem. Phys.
     2020, 22, 8499-8512. DOI: 10.1039/D0CP00502A
   
   for sTDA-xTB:
   * S. Grimme and C. Bannwarth, J. Chem. Phys., 2016, 145, 054103.
     DOI: 10.1063/1.4959605
   
   in the mass-spec context:
   * V. Asgeirsson, C. Bauer and S. Grimme, Chem. Sci., 2017, 8, 4879.
     DOI: 10.1039/c7sc00601b
   * J. Koopman and S. Grimme, ACS Omega 2019, 4, 12, 15120-15133.
     DOI: 10.1021/acsomega.9b02011
   
   for metadynamics refer to:
   * S. Grimme, J. Chem. Theory Comput., 2019, 155, 2847-2862
     DOI: 10.1021/acs.jctc.9b00143
   
   for SPH calculations refer to:
   * S. Spicher and S. Grimme, J. Chem. Theory Comput., 2021, 17, 1701-1714
     DOI: 10.1021/acs.jctc.0c01306
   
   for ONIOM refer to:
   * C. Plett, A. Katbashev, S. Ehlert, S. Grimme, M. Bursch,
     Phys. Chem. Chem. Phys., 2023, 25, 17860-17868. DOI: 10.1039/D3CP02178E
   
   for DIPRO refer to:
   * J. Kohn, N. Gildemeister, S. Grimme, D. Fazzi, A. Hansen,
     J. Chem. Phys. 159, 144106 (2023). DOI: 10.1063/5.0167484
   
   for PTB refer to:
   * S. Grimme, M. Mueller, A. Hansen, J. Chem. Phys., 2023, 158, 124111.
     DOI: 10.1063/5.0137838
   
   with help from (in alphabetical order)
   P. Atkinson, C. Bannwarth, F. Bohle, G. Brandenburg, E. Caldeweyher,
   M. Checinski, S. Dohm, S. Ehlert, S. Ehrlich, M. Friede, T. Froitzheim,
   I. Gerasimov, C. Hölzer, A. Katbashev, J. Kohn, J. Koopman, C. Lavigne,
   S. Lehtola, F. März, M. Müller, F. Musil, H. Neugebauer, J. Pisarek,
   C. Plett, P. Pracht, F. Pultar, J. Seibert, P. Shushkov, S. Spicher,
   M. Stahn, M. Steiner, T. Strunk, J. Stückrath, T. Rose, and J. Unsleber
   
 * started run on 2026/08/28 at 19:09:57.489     
   ID    Z sym.   atoms
    1    6 C      1-40
    2    1 H      41-96

           -------------------------------------------------
          |                Calculation Setup                |
           -------------------------------------------------

          program call               : xtb in.xyz --gfn 2 --grad --norestart
          hostname                   : 756d39058c4f
          coordinate file            : in.xyz
          random seed                :            1702169290


           -------------------------------------------------
          |                 G F N 2 - x T B                 |
           -------------------------------------------------

        Reference                      10.1021/acs.jctc.8b01176
      * Hamiltonian:
        H0-scaling (s, p, d)           1.850000    2.230000    2.230000
        zeta-weighting                 0.500000
      * Dispersion:
        s8                             2.700000
        a1                             0.520000
        a2                             5.000000
        s9                             5.000000
      * Repulsion:
        kExp                           1.500000    1.000000
        rExp                           1.000000
      * Coulomb:
        alpha                          2.000000
        third order                    shell-resolved
        anisotropic                    true
        a3                             3.000000
        a5                             4.000000
        cn-shift                       1.200000
        cn-exp                         4.000000
        max-rad                        5.000000


          ...................................................
          :                      SETUP                      :
          :.................................................:
          :  # basis functions                 216          :
          :  # atomic orbitals                 216          :
          :  # shells                          136          :
          :  # electrons                       216          :
          :  max. iterations                   250          :
          :  Hamiltonian                  GFN2-xTB          :
          :  restarted?                      false          :
          :  GBSA solvation                  false          :
          :  PC potential                    false          :
          :  electronic temp.          300.0000000     K    :
          :  accuracy                    1.0000000          :
          :  -> integral cutoff          0.2500000E+02      :
          :  -> integral neglect         0.1000000E-07      :
          :  -> SCF convergence          0.1000000E-05 Eh   :
          :  -> wf. convergence          0.1000000E-03 e    :
          :  Broyden damping             0.4000000          :
          :  net charge                          0          :
          :  unpaired electrons                  0          :
          ...................................................

 iter      E             dE          RMSdq      gap      omega  full diag
   1   -115.8259515 -0.115826E+03  0.344E+00    1.74       0.0  T
   2   -115.9466243 -0.120673E+00  0.203E+00    1.73       1.0  T
   3   -115.9047845  0.418398E-01  0.104E+00    1.76       1.0  T
   4   -115.9483335 -0.435490E-01  0.475E-01    1.72       1.0  T
   5   -115.9620085 -0.136750E-01  0.126E-01    1.72       1.0  T
   6   -115.9628711 -0.862533E-03  0.626E-02    1.72       1.0  T
   7   -115.9630618 -0.190759E-03  0.272E-02    1.72       1.0  T
   8   -115.9630764 -0.145938E-04  0.141E-02    1.72       1.0  T
   9   -115.9630861 -0.968059E-05  0.412E-03    1.72       2.5  T
  10   -115.9630873 -0.125886E-05  0.914E-04    1.72      11.2  T
  11   -115.9630874 -0.271507E-07  0.504E-04    1.72      20.2  T
  12   -115.9630874 -0.922314E-08  0.260E-04    1.72      39.2  T

   *** convergence criteria satisfied after 12 iterations ***

         #    Occupation            Energy/Eh            Energy/eV
      -------------------------------------------------------------
         1        2.0000           -0.6302198             -17.1492
       ...           ...                  ...                  ...
       102        2.0000           -0.3954229             -10.7600
       103        2.0000           -0.3922272             -10.6730
       104        2.0000           -0.3741453             -10.1810
       105        2.0000           -0.3655881              -9.9482
       106        2.0000           -0.3612446              -9.8300
       107        2.0000           -0.3531893              -9.6108
       108        2.0000           -0.3354440              -9.1279 (HOMO)
       109                         -0.2722122              -7.4073 (LUMO)
       110                         -0.2478968              -6.7456
       111                         -0.2259200              -6.1476
       112                         -0.2061071              -5.6085
       113                         -0.1931826              -5.2568
       ...                                ...                  ...
       216                          0.7142249              19.4350
      -------------------------------------------------------------
                  HL-Gap            0.0632317 Eh            1.7206 eV
             Fermi-level           -0.3038281 Eh           -8.2676 eV

 SCC (total)                   0 d,  0 h,  0 min,  0.493 sec
 SCC setup                      ...        0 min,  0.001 sec (  0.226%)
 Dispersion                     ...        0 min,  0.001 sec (  0.253%)
 classical contributions        ...        0 min,  0.000 sec (  0.041%)
 integral evaluation            ...        0 min,  0.037 sec (  7.545%)
 iterations                     ...        0 min,  0.357 sec ( 72.430%)
 molecular gradient             ...        0 min,  0.091 sec ( 18.446%)
 printout                       ...        0 min,  0.005 sec (  1.055%)

         :::::::::::::::::::::::::::::::::::::::::::::::::::::
         ::                     SUMMARY                     ::
         :::::::::::::::::::::::::::::::::::::::::::::::::::::
         :: total energy            -114.068800886819 Eh    ::
         :: gradient norm              0.082144652910 Eh/a0 ::
         :: HOMO-LUMO gap              1.720623130025 eV    ::
         ::.................................................::
         :: SCC energy              -115.963164363888 Eh    ::
         :: -> isotropic ES            0.015345178810 Eh    ::
         :: -> anisotropic ES          0.030246045776 Eh    ::
         :: -> anisotropic XC          0.074453471511 Eh    ::
         :: -> dispersion             -0.093012799370 Eh    ::
         :: repulsion energy           1.894363477069 Eh    ::
         :: add. restraining           0.000000000000 Eh    ::
         :: total charge              -0.000000000000 e     ::
         :::::::::::::::::::::::::::::::::::::::::::::::::::::

           -------------------------------------------------
          |                Property Printout                |
           -------------------------------------------------

    * Orbital Energies and Occupations

         #    Occupation            Energy/Eh            Energy/eV
      -------------------------------------------------------------
         1        2.0000           -0.6302198             -17.1492
       ...           ...                  ...                  ...
        96        2.0000           -0.4156041             -11.3092
        97        2.0000           -0.4146433             -11.2830
        98        2.0000           -0.4091140             -11.1326
        99        2.0000           -0.4075853             -11.0910
       100        2.0000           -0.3982530             -10.8370
       101        2.0000           -0.3970349             -10.8039
       102        2.0000           -0.3954229             -10.7600
       103        2.0000           -0.3922272             -10.6730
       104        2.0000           -0.3741453             -10.1810
       105        2.0000           -0.3655881              -9.9482
       106        2.0000           -0.3612446              -9.8300
       107        2.0000           -0.3531893              -9.6108
       108        2.0000           -0.3354440              -9.1279 (HOMO)
       109                         -0.2722122              -7.4073 (LUMO)
       110                         -0.2478968              -6.7456
       111                         -0.2259200              -6.1476
       112                         -0.2061071              -5.6085
       113                         -0.1931826              -5.2568
       114                         -0.1789499              -4.8695
       115                         -0.1697078              -4.6180
       116                         -0.1487197              -4.0469
       117                         -0.1267475              -3.4490
       118                         -0.1116706              -3.0387
       119                         -0.0950130              -2.5854
       ...                                ...                  ...
       216                          0.7142249              19.4350
      -------------------------------------------------------------
                  HL-Gap            0.0632317 Eh            1.7206 eV
             Fermi-level           -0.3038281 Eh           -8.2676 eV

     #   Z          covCN         q      C6AA      α(0)
     1   6          3.753    -0.103    22.523     6.768
     2   6          2.944    -0.004    28.128     8.698
     3   6          2.950    -0.014    28.366     8.735
     4   6          3.896     0.025    20.107     6.374
     5   6          3.808    -0.061    21.671     6.627
     6   6          3.802    -0.053    21.520     6.605
     7   6          3.809    -0.059    21.636     6.621
     8   6          3.754    -0.100    22.462     6.758
     9   6          3.754    -0.099    22.447     6.756
    10   6          2.898    -0.034    28.852     8.807
    11   6          2.907    -0.044    29.085     8.843
    12   6          2.945     0.013    27.731     8.637
    13   6          2.903    -0.050    29.247     8.867
    14   6          2.895    -0.036    28.903     8.814
    15   6          2.906    -0.046    29.143     8.852
    16   6          2.945     0.011    27.763     8.642
    17   6          2.908    -0.050    29.231     8.865
    18   6          2.895    -0.036    28.892     8.813
    19   6          2.901    -0.038    28.943     8.821
    20   6          2.906    -0.047    29.158     8.854
    21   6          2.943     0.010    27.787     8.646
    22   6          3.752    -0.101    22.486     6.762
    23   6          2.906    -0.045    29.121     8.848
    24   6          2.892    -0.038    28.932     8.819
    25   6          2.907    -0.048    29.195     8.860
    26   6          2.943     0.010    27.785     8.645
    27   6          3.752    -0.101    22.483     6.762
    28   6          2.904    -0.046    29.143     8.852
    29   6          2.897    -0.034    28.843     8.806
    30   6          2.949    -0.015    28.377     8.737
    31   6          2.943    -0.003    28.110     8.696
    32   6          3.808    -0.059    21.638     6.622
    33   6          3.802    -0.053    21.520     6.605
    34   6          3.808    -0.061    21.661     6.625
    35   6          3.897     0.024    20.109     6.375
    36   6          3.754    -0.100    22.459     6.758
    37   6          3.753    -0.099    22.446     6.756
    38   6          3.753    -0.104    22.541     6.770
    39   6          3.755    -0.101    22.476     6.760
    40   6          3.756    -0.099    22.452     6.756
    41   1          0.924     0.034     2.529     2.487
    42   1          0.924     0.039     2.466     2.456
    43   1          0.924     0.036     2.498     2.472
    44   1          0.924     0.028     2.615     2.529
    45   1          0.923     0.031     2.567     2.506
    46   1          0.924     0.030     2.591     2.517
    47   1          0.924     0.024     2.667     2.554
    48   1          0.924     0.034     2.526     2.485
    49   1          0.924     0.035     2.523     2.484
    50   1          0.924     0.031     2.578     2.511
    51   1          0.924     0.032     2.563     2.504
    52   1          0.924     0.034     2.532     2.489
    53   1          0.924     0.032     2.554     2.499
    54   1          0.924     0.032     2.561     2.503
    55   1          0.924     0.032     2.563     2.503
    56   1          0.925     0.035     2.523     2.484
    57   1          0.925     0.037     2.492     2.469
    58   1          0.925     0.027     2.632     2.537
    59   1          0.925     0.032     2.565     2.504
    60   1          0.925     0.032     2.555     2.500
    61   1          0.924     0.029     2.605     2.524
    62   1          0.925     0.029     2.601     2.522
    63   1          0.925     0.030     2.589     2.516
    64   1          0.924     0.028     2.616     2.529
    65   1          0.924     0.038     2.476     2.461
    66   1          0.924     0.041     2.437     2.441
    67   1          0.924     0.042     2.429     2.437
    68   1          0.925     0.027     2.635     2.538
    69   1          0.925     0.034     2.534     2.489
    70   1          0.924     0.028     2.617     2.530
    71   1          0.924     0.038     2.481     2.463
    72   1          0.924     0.042     2.425     2.435
    73   1          0.924     0.040     2.448     2.447
    74   1          0.924     0.029     2.594     2.519
    75   1          0.925     0.038     2.479     2.462
    76   1          0.924     0.034     2.527     2.486
    77   1          0.924     0.035     2.522     2.483
    78   1          0.924     0.024     2.667     2.554
    79   1          0.924     0.030     2.592     2.518
    80   1          0.923     0.031     2.573     2.509
    81   1          0.924     0.028     2.619     2.531
    82   1          0.924     0.030     2.585     2.514
    83   1          0.924     0.031     2.566     2.505
    84   1          0.924     0.033     2.544     2.494
    85   1          0.924     0.033     2.543     2.494
    86   1          0.924     0.032     2.555     2.500
    87   1          0.924     0.031     2.566     2.505
    88   1          0.924     0.036     2.507     2.476
    89   1          0.924     0.039     2.458     2.452
    90   1          0.924     0.036     2.497     2.471
    91   1          0.924     0.041     2.432     2.439
    92   1          0.924     0.043     2.416     2.431
    93   1          0.924     0.039     2.465     2.455
    94   1          0.924     0.039     2.465     2.455
    95   1          0.924     0.040     2.450     2.448
    96   1          0.924     0.044     2.396     2.421

 Mol. C6AA /au·bohr⁶  :      84587.567315
 Mol. C8AA /au·bohr⁸  :    1945405.295130
 Mol. α(0) /au        :        452.664398


Wiberg/Mayer (AO) data.
largest (>0.10) Wiberg bond orders for each atom

 ---------------------------------------------------------------------------
     #   Z sym  total        # sym  WBO       # sym  WBO       # sym  WBO
 ---------------------------------------------------------------------------
     1   6      3.995 --     2      1.021    41      0.983    43      0.977
                            42      0.972
     2   6      3.981 --     3      1.817     1      1.021     7      1.010
     3   6      3.982 --     2      1.817    10      1.050     4      0.963
     4   6      3.987 --     8      0.990     9      0.988     5      0.983
                             3      0.963
     5   6      3.996 --     6      1.011     4      0.983    45      0.976
                            44      0.975
     6   6      3.998 --     5      1.011     7      1.007    47      0.977
                            46      0.976
     7   6      3.997 --     2      1.010     6      1.007    48      0.966
                            49      0.962
     8   6      3.995 --     4      0.990    50      0.987    51      0.985
                            52      0.985
     9   6      3.995 --     4      0.988    54      0.985    53      0.985
                            55      0.984
    10   6      3.969 --    11      1.847     3      1.050    56      0.954
    11   6      3.988 --    10      1.847    12      1.068    57      0.953
    12   6      3.954 --    13      1.722    11      1.068    40      1.015
                            15      0.114
    13   6      3.984 --    12      1.722    14      1.156    58      0.963
    14   6      3.978 --    15      1.745    13      1.156    59      0.958
    15   6      3.968 --    14      1.745    16      1.095    60      0.957
                            12      0.114
    16   6      3.932 --    17      1.690    15      1.095    39      1.018
    17   6      3.964 --    16      1.690    18      1.170    61      0.960
    18   6      3.944 --    19      1.682    17      1.170    62      0.960
    19   6      3.978 --    18      1.682    20      1.182    63      0.957
    20   6      3.945 --    21      1.647    19      1.182    64      0.962
    21   6      3.941 --    20      1.647    23      1.146    22      1.021
    22   6      3.996 --    21      1.021    65      0.980    66      0.973
                            67      0.971
    23   6      3.951 --    24      1.691    21      1.146    68      0.962
    24   6      3.945 --    23      1.691    25      1.175    69      0.956
    25   6      3.975 --    26      1.668    24      1.175    70      0.961
    26   6      3.937 --    25      1.668    28      1.122    27      1.022
    27   6      3.996 --    26      1.022    71      0.979    73      0.973
                            72      0.971
    28   6      3.986 --    29      1.786    26      1.122    74      0.963
    29   6      3.937 --    28      1.786    30      1.053    75      0.950
    30   6      3.982 --    31      1.817    29      1.053    35      0.961
    31   6      3.972 --    30      1.817    38      1.021    32      1.010
    32   6      3.997 --    31      1.010    33      1.007    77      0.966
                            76      0.962
    33   6      3.998 --    34      1.011    32      1.007    78      0.977
                            79      0.976
    34   6      3.996 --    33      1.011    35      0.983    80      0.976
                            81      0.975
    35   6      3.982 --    36      0.991    37      0.987    34      0.983
                            30      0.961
    36   6      3.995 --    35      0.991    82      0.987    83      0.985
                            84      0.984
    37   6      3.995 --    35      0.987    86      0.986    85      0.985
                            87      0.984
    38   6      3.995 --    31      1.021    88      0.983    90      0.976
                            89      0.972
    39   6      3.993 --    16      1.018    93      0.981    91      0.973
                            92      0.970
    40   6      3.996 --    12      1.015    95      0.979    94      0.974
                            96      0.968
    41   1      0.999 --     1      0.983
    42   1      0.998 --     1      0.972
    43   1      0.998 --     1      0.977
    44   1      0.998 --     5      0.975
    45   1      0.999 --     5      0.976
    46   1      0.999 --     6      0.976
    47   1      0.999 --     6      0.977
    48   1      0.998 --     7      0.966
    49   1      0.999 --     7      0.962
    50   1      0.999 --     8      0.987
    51   1      0.998 --     8      0.985
    52   1      0.999 --     8      0.985
    53   1      0.999 --     9      0.985
    54   1      0.999 --     9      0.985
    55   1      0.998 --     9      0.984
    56   1      0.999 --    10      0.954
    57   1      0.994 --    11      0.953
    58   1      0.999 --    13      0.963
    59   1      0.999 --    14      0.958
    60   1      0.995 --    15      0.957
    61   1      0.999 --    17      0.960
    62   1      0.999 --    18      0.960
    63   1      0.999 --    19      0.957
    64   1      0.999 --    20      0.962
    65   1      0.998 --    22      0.980
    66   1      0.997 --    22      0.973
    67   1      0.996 --    22      0.971
    68   1      0.999 --    23      0.962
    69   1      0.999 --    24      0.956
Note: The following floating-point exceptions are signalling: IEEE_UNDERFLOW_FLAG
normal termination of xtb
    70   1      0.999 --    25      0.961
    71   1      0.998 --    27      0.979
    72   1      0.996 --    27      0.971
    73   1      0.997 --    27      0.973
    74   1      0.999 --    28      0.963
    75   1      0.998 --    29      0.950
    76   1      0.998 --    32      0.962
    77   1      0.998 --    32      0.966
    78   1      0.999 --    33      0.977
    79   1      0.999 --    33      0.976
    80   1      0.999 --    34      0.976
    81   1      0.998 --    34      0.975
    82   1      0.999 --    36      0.987
    83   1      0.998 --    36      0.985
    84   1      0.999 --    36      0.984
    85   1      0.999 --    37      0.985
    86   1      0.999 --    37      0.986
    87   1      0.998 --    37      0.984
    88   1      0.998 --    38      0.983
    89   1      0.998 --    38      0.972
    90   1      0.998 --    38      0.976
    91   1      0.996 --    39      0.973
    92   1      0.996 --    39      0.970
    93   1      0.998 --    39      0.981
    94   1      0.997 --    40      0.974
    95   1      0.998 --    40      0.979
    96   1      0.997 --    40      0.968
 ---------------------------------------------------------------------------

Topologies differ in total number of bonds
Writing topology from bond orders to xtbtopo.mol

molecular dipole:
                 x           y           z       tot (Debye)
 q only:        0.320       0.154      -0.180
   full:        0.370       0.150      -0.212       1.147
molecular quadrupole (traceless):
                xx          xy          yy          xz          yz          zz
 q only:        3.714     -13.089       7.340       1.229       1.413     -11.054
  q+dip:        9.148     -14.746      12.470       0.686       0.111     -21.618
   full:        5.921     -14.500       9.569       0.991       1.435     -15.491


           -------------------------------------------------
          | TOTAL ENERGY             -114.068800886819 Eh   |
          | GRADIENT NORM               0.082144652910 Eh/α |
          | HOMO-LUMO GAP               1.720623130025 eV   |
           -------------------------------------------------

------------------------------------------------------------------------
 * finished run on 2026/08/28 at 19:09:58.022     
------------------------------------------------------------------------
 total:
 * wall-time:     0 d,  0 h,  0 min,  0.533 sec
 *  cpu-time:     0 d,  0 h,  0 min,  0.478 sec
 * ratio c/w:     0.896 speedup
 SCF:
 * wall-time:     0 d,  0 h,  0 min,  0.494 sec
 *  cpu-time:     0 d,  0 h,  0 min,  0.444 sec
 * ratio c/w:     0.897 speedup

