      -----------------------------------------------------------      
     |                   =====================                   |     
     |                           x T B                           |     
     |                   =====================                   |     
     |                         S. Grimme                         |     
     |          Mulliken Center for Theoretical Chemistry        |     
     |                    University of Bonn                     |     
      -----------------------------------------------------------      

   * xtb version 6.7.1 (unknown) compiled by 'root@buildkitsandbox' on 2026-08-28

   xtb is free software: you can redistribute it and/or modify it under
   the terms of the GNU Lesser General Public License as published by
   the Free Software Foundation, either version 3 of the License, or
   (at your option) any later version.
   
   xtb is distributed in the hope that it will be useful,
   but WITHOUT ANY WARRANTY; without even the implied warranty of
   MERCHANTABILITY or FITNESS FOR A PARTICULAR PURPOSE.  See the
   GNU Lesser General Public License for more details.
   
   Cite this work as:
   * C. Bannwarth, E. Caldeweyher, S. Ehlert, A. Hansen, P. Pracht,
     J. Seibert, S. Spicher, S. Grimme, WIREs Comput. Mol. Sci., 2020, 11,
     e01493. DOI: 10.1002/wcms.1493
   
   for GFN2-xTB:
   * C. Bannwarth, S. Ehlert and S. Grimme., J. Chem. Theory Comput., 2019,
     15, 1652-1671. DOI: 10.1021/acs.jctc.8b01176
   for GFN1-xTB:
   * S. Grimme, C. Bannwarth, P. Shushkov, J. Chem. Theory Comput., 2017,
     13, 1989-2009. DOI: 10.1021/acs.jctc.7b00118
   for GFN0-xTB:
   * P. Pracht, E. Caldeweyher, S. Ehlert, S. Grimme, ChemRxiv, 2019, preprint.
     DOI: 10.26434/chemrxiv.8326202.v1
   for GFN-FF:
   * S. Spicher and S. Grimme, Angew. Chem. Int. Ed., 2020, 59, 15665-15673.
     DOI: 10.1002/anie.202004239
   
   for ALPB and GBSA implicit solvation:
   * S. Ehlert, M. Stahn, S. Spicher, S. Grimme, J. Chem. Theory Comput.,
     2021, 17, 4250-4261. DOI: 10.1021/acs.jctc.1c00471
   
   for ddCOSMO and CPCM-X implicit solvation:
   * M. Stahn, S. Ehlert, S. Grimme, J. Phys. Chem. A,
     2023, XX, XXXX-XXXX. DOI: 10.1021/acs.jpca.3c04382
   
   for DFT-D4:
   * E. Caldeweyher, C. Bannwarth and S. Grimme, J. Chem. Phys., 2017,
     147, 034112. DOI: 10.1063/1.4993215
   * E. Caldeweyher, S. Ehlert, A. Hansen, H. Neugebauer, S. Spicher,
     C. Bannwarth and S. Grimme, J. Chem. Phys., 2019, 150, 154122.
     DOI: 10.1063/1.5090222
   * E. Caldeweyher, J.-M. Mewes, S. Ehlert and S. Grimme, Phys. Chem. Chem. Phys.
     2020, 22, 8499-8512. DOI: 10.1039/D0CP00502A
   
   for sTDA-xTB:
   * S. Grimme and C. Bannwarth, J. Chem. Phys., 2016, 145, 054103.
     DOI: 10.1063/1.4959605
   
   in the mass-spec context:
   * V. Asgeirsson, C. Bauer and S. Grimme, Chem. Sci., 2017, 8, 4879.
     DOI: 10.1039/c7sc00601b
   * J. Koopman and S. Grimme, ACS Omega 2019, 4, 12, 15120-15133.
     DOI: 10.1021/acsomega.9b02011
   
   for metadynamics refer to:
   * S. Grimme, J. Chem. Theory Comput., 2019, 155, 2847-2862
     DOI: 10.1021/acs.jctc.9b00143
   
   for SPH calculations refer to:
   * S. Spicher and S. Grimme, J. Chem. Theory Comput., 2021, 17, 1701-1714
     DOI: 10.1021/acs.jctc.0c01306
   
   for ONIOM refer to:
   * C. Plett, A. Katbashev, S. Ehlert, S. Grimme, M. Bursch,
     Phys. Chem. Chem. Phys., 2023, 25, 17860-17868. DOI: 10.1039/D3CP02178E
   
   for DIPRO refer to:
   * J. Kohn, N. Gildemeister, S. Grimme, D. Fazzi, A. Hansen,
     J. Chem. Phys. 159, 144106 (2023). DOI: 10.1063/5.0167484
   
   for PTB refer to:
   * S. Grimme, M. Mueller, A. Hansen, J. Chem. Phys., 2023, 158, 124111.
     DOI: 10.1063/5.0137838
   
   with help from (in alphabetical order)
   P. Atkinson, C. Bannwarth, F. Bohle, G. Brandenburg, E. Caldeweyher,
   M. Checinski, S. Dohm, S. Ehlert, S. Ehrlich, M. Friede, T. Froitzheim,
   I. Gerasimov, C. Hölzer, A. Katbashev, J. Kohn, J. Koopman, C. Lavigne,
   S. Lehtola, F. März, M. Müller, F. Musil, H. Neugebauer, J. Pisarek,
   C. Plett, P. Pracht, F. Pultar, J. Seibert, P. Shushkov, S. Spicher,
   M. Stahn, M. Steiner, T. Strunk, J. Stückrath, T. Rose, and J. Unsleber
   
 * started run on 2026/08/28 at 19:11:21.751     
   ID    Z sym.   atoms
    1    6 C      1-40
    2    1 H      41-96

           -------------------------------------------------
          |                Calculation Setup                |
           -------------------------------------------------

          program call               : xtb in.xyz --gfn 2 --opt --norestart
          hostname                   : 756d39058c4f
          coordinate file            : in.xyz
          random seed                :            1744703217


           -------------------------------------------------
          |                 G F N 2 - x T B                 |
           -------------------------------------------------

        Reference                      10.1021/acs.jctc.8b01176
      * Hamiltonian:
        H0-scaling (s, p, d)           1.850000    2.230000    2.230000
        zeta-weighting                 0.500000
      * Dispersion:
        s8                             2.700000
        a1                             0.520000
        a2                             5.000000
        s9                             5.000000
      * Repulsion:
        kExp                           1.500000    1.000000
        rExp                           1.000000
      * Coulomb:
        alpha                          2.000000
        third order                    shell-resolved
        anisotropic                    true
        a3                             3.000000
        a5                             4.000000
        cn-shift                       1.200000
        cn-exp                         4.000000
        max-rad                        5.000000


          ...................................................
          :                      SETUP                      :
          :.................................................:
          :  # basis functions                 216          :
          :  # atomic orbitals                 216          :
          :  # shells                          136          :
          :  # electrons                       216          :
          :  max. iterations                   250          :
          :  Hamiltonian                  GFN2-xTB          :
          :  restarted?                      false          :
          :  GBSA solvation                  false          :
          :  PC potential                    false          :
          :  electronic temp.          300.0000000     K    :
          :  accuracy                    1.0000000          :
          :  -> integral cutoff          0.2500000E+02      :
          :  -> integral neglect         0.1000000E-07      :
          :  -> SCF convergence          0.1000000E-05 Eh   :
          :  -> wf. convergence          0.1000000E-03 e    :
          :  Broyden damping             0.4000000          :
          :  net charge                          0          :
          :  unpaired electrons                  0          :
          ...................................................

 iter      E             dE          RMSdq      gap      omega  full diag
   1   -115.8259515 -0.115826E+03  0.344E+00    1.74       0.0  T
   2   -115.9466243 -0.120673E+00  0.203E+00    1.73       1.0  T
   3   -115.9047845  0.418398E-01  0.104E+00    1.76       1.0  T
   4   -115.9483335 -0.435490E-01  0.475E-01    1.72       1.0  T
   5   -115.9620085 -0.136750E-01  0.126E-01    1.72       1.0  T
   6   -115.9628711 -0.862533E-03  0.626E-02    1.72       1.0  T
   7   -115.9630618 -0.190759E-03  0.272E-02    1.72       1.0  T
   8   -115.9630764 -0.145938E-04  0.141E-02    1.72       1.0  T
   9   -115.9630861 -0.968059E-05  0.412E-03    1.72       2.5  T
  10   -115.9630873 -0.125886E-05  0.914E-04    1.72      11.2  T
  11   -115.9630874 -0.271507E-07  0.504E-04    1.72      20.2  T
  12   -115.9630874 -0.922314E-08  0.260E-04    1.72      39.2  T

   *** convergence criteria satisfied after 12 iterations ***

         #    Occupation            Energy/Eh            Energy/eV
      -------------------------------------------------------------
         1        2.0000           -0.6302198             -17.1492
       ...           ...                  ...                  ...
       102        2.0000           -0.3954229             -10.7600
       103        2.0000           -0.3922272             -10.6730
       104        2.0000           -0.3741453             -10.1810
       105        2.0000           -0.3655881              -9.9482
       106        2.0000           -0.3612446              -9.8300
       107        2.0000           -0.3531893              -9.6108
       108        2.0000           -0.3354440              -9.1279 (HOMO)
       109                         -0.2722122              -7.4073 (LUMO)
       110                         -0.2478968              -6.7456
       111                         -0.2259200              -6.1476
       112                         -0.2061071              -5.6085
       113                         -0.1931826              -5.2568
       ...                                ...                  ...
       216                          0.7142249              19.4350
      -------------------------------------------------------------
                  HL-Gap            0.0632317 Eh            1.7206 eV
             Fermi-level           -0.3038281 Eh           -8.2676 eV

 SCC (total)                   0 d,  0 h,  0 min,  0.532 sec
 SCC setup                      ...        0 min,  0.005 sec (  1.023%)
 Dispersion                     ...        0 min,  0.006 sec (  1.134%)
 classical contributions        ...        0 min,  0.001 sec (  0.134%)
 integral evaluation            ...        0 min,  0.029 sec (  5.472%)
 iterations                     ...        0 min,  0.416 sec ( 78.286%)
 molecular gradient             ...        0 min,  0.067 sec ( 12.528%)
 printout                       ...        0 min,  0.008 sec (  1.412%)

         :::::::::::::::::::::::::::::::::::::::::::::::::::::
         ::                     SUMMARY                     ::
         :::::::::::::::::::::::::::::::::::::::::::::::::::::
         :: total energy            -114.068800886819 Eh    ::
         :: gradient norm              0.082144652910 Eh/a0 ::
         :: HOMO-LUMO gap              1.720623130025 eV    ::
         ::.................................................::
         :: SCC energy              -115.963164363888 Eh    ::
         :: -> isotropic ES            0.015345178810 Eh    ::
         :: -> anisotropic ES          0.030246045776 Eh    ::
         :: -> anisotropic XC          0.074453471511 Eh    ::
         :: -> dispersion             -0.093012799370 Eh    ::
         :: repulsion energy           1.894363477069 Eh    ::
         :: add. restraining           0.000000000000 Eh    ::
         :: total charge              -0.000000000000 e     ::
         :::::::::::::::::::::::::::::::::::::::::::::::::::::

      ----------------------------------------------------------- 
     |                   =====================                   |
     |                        A N C O P T                        |
     |                   =====================                   |
     |               Approximate Normal Coordinate               |
     |                Rational Function Optimizer                |
      ----------------------------------------------------------- 

          ...................................................
          :                      SETUP                      :
          :.................................................:
          :   optimization level            normal          :
          :   max. optcycles                   288          :
          :   ANC micro-cycles                  20          :
          :   degrees of freedom               282          :
          :.................................................:
          :   RF solver                   davidson          :
          :   write xtbopt.log                true          :
          :   linear?                        false          :
          :   energy convergence         0.5000000E-05 Eh   :
          :   grad. convergence          0.1000000E-02 Eh/α :
          :   maximum RF displ.          1.0000000          :
          :   Hlow (freq-cutoff)         0.1000000E-01      :
          :   Hmax (freq-cutoff)         5.0000000          :
          :   S6 in model hess.         20.0000000          :
          ...................................................

generating ANC from exact Hessian ...
Using Lindh-Hessian (1995)
 Shifting diagonal of input Hessian by    9.9906313380610512E-003
 Lowest  eigenvalues of input Hessian
    0.000000    0.000000    0.000000    0.000000    0.000000    0.000000
    0.010000    0.010017    0.010046    0.010069    0.010137    0.010152
    0.010215    0.010270    0.010552    0.010649    0.010690    0.010781
 Highest eigenvalues
    1.890000    1.938077    1.958156    2.033891    2.051980    2.092306


........................................................................
.............................. CYCLE    1 ..............................
........................................................................

 iter      E             dE          RMSdq      gap      omega  full diag
   1   -115.9630874 -0.115963E+03  0.840E-05    1.72       0.0  T
   2   -115.9630874  0.212168E-10  0.745E-05    1.72     137.0  T
   3   -115.9630874 -0.466528E-09  0.253E-05    1.72     402.9  T
     SCC iter.                  ...        0 min,  0.089 sec
     gradient                   ...        0 min,  0.076 sec
 * total energy  :  -114.0688009 Eh     change       -0.2773490E-08 Eh
   gradient norm :     0.0821456 Eh/α   predicted     0.0000000E+00 (-100.00%)
   displ. norm   :     0.3893923 α      lambda       -0.1425171E-01
   maximum displ.:     0.2172099 α      in ANC's #73, #32, #47, ...

........................................................................
.............................. CYCLE    2 ..............................
........................................................................

 iter      E             dE          RMSdq      gap      omega  full diag
   1   -116.0246987 -0.116025E+03  0.147E-01    1.61       0.0  T
   2   -116.0247233 -0.246092E-04  0.876E-02    1.61       1.0  T
   3   -116.0246085  0.114775E-03  0.377E-02    1.61       1.0  T
   4   -116.0247340 -0.125485E-03  0.754E-03    1.61       1.4  T
   5   -116.0247376 -0.359918E-05  0.273E-03    1.61       3.7  T
   6   -116.0247379 -0.339705E-06  0.141E-03    1.61       7.2  T
   7   -116.0247379 -0.355456E-07  0.628E-04    1.61      16.3  T
   8   -116.0247380 -0.181117E-07  0.290E-04    1.61      35.2  T
     SCC iter.                  ...        0 min,  0.243 sec
     gradient                   ...        0 min,  0.076 sec
 * total energy  :  -114.0787239 Eh     change       -0.9922975E-02 Eh
   gradient norm :     0.0372705 Eh/α   predicted    -0.8219209E-02 ( -17.17%)
   displ. norm   :     0.3798929 α      lambda       -0.4902252E-02
   maximum displ.:     0.1439270 α      in ANC's #73, #32, #47, ...

........................................................................
.............................. CYCLE    3 ..............................
........................................................................

 iter      E             dE          RMSdq      gap      omega  full diag
   1   -116.0580486 -0.116058E+03  0.116E-01    1.50       0.0  T
   2   -116.0580594 -0.107899E-04  0.683E-02    1.50       1.0  T
   3   -116.0580119  0.475444E-04  0.238E-02    1.50       1.0  T
   4   -116.0580623 -0.504768E-04  0.533E-03    1.50       1.9  T
   5   -116.0580644 -0.203426E-05  0.179E-03    1.50       5.7  T
   6   -116.0580645 -0.148086E-06  0.950E-04    1.50      10.7  T
   7   -116.0580645 -0.136994E-07  0.458E-04    1.50      22.3  T
     SCC iter.                  ...        0 min,  0.225 sec
     gradient                   ...        0 min,  0.095 sec
 * total energy  :  -114.0819106 Eh     change       -0.3186743E-02 Eh
   gradient norm :     0.0153205 Eh/α   predicted    -0.2806219E-02 ( -11.94%)
   displ. norm   :     0.3623192 α      lambda       -0.1762273E-02
   maximum displ.:     0.1410607 α      in ANC's #32, #47, #16, ...

........................................................................
.............................. CYCLE    4 ..............................
........................................................................

 iter      E             dE          RMSdq      gap      omega  full diag
   1   -116.0632229 -0.116063E+03  0.100E-01    1.43       0.0  T
   2   -116.0632251 -0.222316E-05  0.591E-02    1.43       1.0  T
   3   -116.0632100  0.150661E-04  0.131E-02    1.43       1.0  T
   4   -116.0632263 -0.162998E-04  0.240E-03    1.43       4.3  T
   5   -116.0632267 -0.339097E-06  0.113E-03    1.43       9.1  T
   6   -116.0632267 -0.531498E-07  0.574E-04    1.43      17.8  T
   7   -116.0632267 -0.704298E-08  0.281E-04    1.43      36.3  T
     SCC iter.                  ...        0 min,  0.272 sec
     gradient                   ...        0 min,  0.070 sec
 * total energy  :  -114.0832979 Eh     change       -0.1387304E-02 Eh
   gradient norm :     0.0123093 Eh/α   predicted    -0.9968199E-03 ( -28.15%)
   displ. norm   :     0.5373228 α      lambda       -0.1921538E-02
   maximum displ.:     0.2044925 α      in ANC's #32, #16, #47, ...

........................................................................
.............................. CYCLE    5 ..............................
........................................................................

 iter      E             dE          RMSdq      gap      omega  full diag
   1   -116.0598725 -0.116060E+03  0.144E-01    1.35       0.0  T
   2   -116.0598757 -0.318657E-05  0.850E-02    1.35       1.0  T
   3   -116.0598316  0.441046E-04  0.220E-02    1.35       1.0  T
   4   -116.0598786 -0.470690E-04  0.370E-03    1.35       2.8  T
   5   -116.0598795 -0.879149E-06  0.160E-03    1.35       6.4  T
   6   -116.0598796 -0.110703E-06  0.737E-04    1.35      13.8  T
   7   -116.0598796 -0.933579E-08  0.393E-04    1.35      26.0  T
     SCC iter.                  ...        0 min,  0.279 sec
     gradient                   ...        0 min,  0.086 sec
 * total energy  :  -114.0847736 Eh     change       -0.1475646E-02 Eh
   gradient norm :     0.0142034 Eh/α   predicted    -0.1238161E-02 ( -16.09%)
   displ. norm   :     0.5397447 α      lambda       -0.1500378E-02
   maximum displ.:     0.2142542 α      in ANC's #16, #32, #13, ...

........................................................................
.............................. CYCLE    6 ..............................
........................................................................

 iter      E             dE          RMSdq      gap      omega  full diag
   1   -116.0552891 -0.116055E+03  0.132E-01    1.29       0.0  T
   2   -116.0552914 -0.226842E-05  0.780E-02    1.30       1.0  T
   3   -116.0552347  0.567336E-04  0.252E-02    1.30       1.0  T
   4   -116.0552946 -0.599095E-04  0.391E-03    1.30       2.6  T
   5   -116.0552957 -0.111732E-05  0.140E-03    1.30       7.3  T
   6   -116.0552958 -0.852799E-07  0.647E-04    1.30      15.8  T
   7   -116.0552958 -0.460687E-08  0.340E-04    1.30      30.0  T
     SCC iter.                  ...        0 min,  0.226 sec
     gradient                   ...        0 min,  0.085 sec
 * total energy  :  -114.0859488 Eh     change       -0.1175217E-02 Eh
   gradient norm :     0.0157910 Eh/α   predicted    -0.9687390E-03 ( -17.57%)
   displ. norm   :     0.5312604 α      lambda       -0.1368507E-02
   maximum displ.:     0.2290469 α      in ANC's #16, #13, #28, ...

........................................................................
.............................. CYCLE    7 ..............................
........................................................................

 iter      E             dE          RMSdq      gap      omega  full diag
   1   -116.0547620 -0.116055E+03  0.115E-01    1.27       0.0  T
   2   -116.0547643 -0.223363E-05  0.677E-02    1.27       1.0  T
   3   -116.0547147  0.496225E-04  0.243E-02    1.27       1.0  T
   4   -116.0547671 -0.524081E-04  0.386E-03    1.27       2.6  T
   5   -116.0547682 -0.109331E-05  0.128E-03    1.27       8.0  T
   6   -116.0547682 -0.785551E-07  0.565E-04    1.27      18.1  T
   7   -116.0547682 -0.106428E-08  0.287E-04    1.27      35.5  T
     SCC iter.                  ...        0 min,  0.218 sec
     gradient                   ...        0 min,  0.110 sec
 * total energy  :  -114.0870271 Eh     change       -0.1078336E-02 Eh
   gradient norm :     0.0133938 Eh/α   predicted    -0.8773937E-03 ( -18.63%)
   displ. norm   :     0.5393028 α      lambda       -0.1186630E-02
   maximum displ.:     0.2313826 α      in ANC's #16, #13, #23, ...

........................................................................
.............................. CYCLE    8 ..............................
........................................................................

 iter      E             dE          RMSdq      gap      omega  full diag
   1   -116.0573961 -0.116057E+03  0.113E-01    1.26       0.0  T
   2   -116.0573993 -0.319519E-05  0.665E-02    1.26       1.0  T
   3   -116.0573611  0.382000E-04  0.218E-02    1.26       1.0  T
   4   -116.0574022 -0.410898E-04  0.344E-03    1.26       3.0  T
   5   -116.0574029 -0.723928E-06  0.150E-03    1.26       6.8  T
   6   -116.0574030 -0.119815E-06  0.598E-04    1.26      17.1  T
   7   -116.0574030 -0.194481E-08  0.299E-04    1.26      34.1  T
     SCC iter.                  ...        0 min,  0.263 sec
     gradient                   ...        0 min,  0.097 sec
 * total energy  :  -114.0879506 Eh     change       -0.9235063E-03 Eh
   gradient norm :     0.0095920 Eh/α   predicted    -0.7658791E-03 ( -17.07%)
   displ. norm   :     0.5180194 α      lambda       -0.9332050E-03
   maximum displ.:     0.2144190 α      in ANC's #16, #13, #23, ...

........................................................................
.............................. CYCLE    9 ..............................
........................................................................

 iter      E             dE          RMSdq      gap      omega  full diag
   1   -116.0626624 -0.116063E+03  0.102E-01    1.26       0.0  T
   2   -116.0626657 -0.333199E-05  0.604E-02    1.26       1.0  T
   3   -116.0626156  0.501533E-04  0.245E-02    1.26       1.0  T
   4   -116.0626695 -0.539533E-04  0.369E-03    1.26       2.8  T
   5   -116.0626704 -0.873231E-06  0.141E-03    1.26       7.3  T
   6   -116.0626705 -0.105317E-06  0.606E-04    1.26      16.8  T
   7   -116.0626705 -0.318506E-08  0.340E-04    1.26      30.0  T
     SCC iter.                  ...        0 min,  0.190 sec
     gradient                   ...        0 min,  0.118 sec
 * total energy  :  -114.0886228 Eh     change       -0.6721508E-03 Eh
   gradient norm :     0.0086810 Eh/α   predicted    -0.5918134E-03 ( -11.95%)
   displ. norm   :     0.5465102 α      lambda       -0.7315733E-03
   maximum displ.:     0.2104800 α      in ANC's #16, #13, #23, ...

........................................................................
.............................. CYCLE   10 ..............................
........................................................................

 iter      E             dE          RMSdq      gap      omega  full diag
   1   -116.0622021 -0.116062E+03  0.114E-01    1.24       0.0  T
   2   -116.0622046 -0.255811E-05  0.678E-02    1.24       1.0  T
   3   -116.0621352  0.694317E-04  0.283E-02    1.24       1.0  T
   4   -116.0622099 -0.747003E-04  0.310E-03    1.24       3.3  T
   5   -116.0622105 -0.582380E-06  0.159E-03    1.24       6.4  T
   6   -116.0622106 -0.106887E-06  0.660E-04    1.24      15.5  T
   7   -116.0622106  0.956831E-09  0.370E-04    1.24      27.5  T
     SCC iter.                  ...        0 min,  0.231 sec
     gradient                   ...        0 min,  0.077 sec
 * total energy  :  -114.0890399 Eh     change       -0.4171144E-03 Eh
   gradient norm :     0.0105403 Eh/α   predicted    -0.4750606E-03 (  13.89%)
   displ. norm   :     0.3569701 α      lambda       -0.5624260E-03
   maximum displ.:     0.1481322 α      in ANC's #13, #17, #8, ...

........................................................................
.............................. CYCLE   11 ..............................
........................................................................

 iter      E             dE          RMSdq      gap      omega  full diag
   1   -116.0697029 -0.116070E+03  0.608E-02    1.24       0.0  T
   2   -116.0697037 -0.840013E-06  0.360E-02    1.24       1.0  T
   3   -116.0696836  0.201088E-04  0.148E-02    1.24       1.0  T
   4   -116.0697052 -0.216159E-04  0.181E-03    1.24       5.6  T
   5   -116.0697054 -0.164210E-06  0.850E-04    1.24      12.0  T
   6   -116.0697054 -0.263404E-07  0.399E-04    1.24      25.6  T
     SCC iter.                  ...        0 min,  0.200 sec
     gradient                   ...        0 min,  0.075 sec
 * total energy  :  -114.0894097 Eh     change       -0.3698437E-03 Eh
   gradient norm :     0.0079961 Eh/α   predicted    -0.3170638E-03 ( -14.27%)
   displ. norm   :     0.4883595 α      lambda       -0.5078409E-03
   maximum displ.:     0.1875758 α      in ANC's #13, #16, #8, ...

........................................................................
.............................. CYCLE   12 ..............................
........................................................................

 iter      E             dE          RMSdq      gap      omega  full diag
   1   -116.0642176 -0.116064E+03  0.987E-02    1.21       0.0  T
   2   -116.0642193 -0.173704E-05  0.584E-02    1.21       1.0  T
   3   -116.0641684  0.509654E-04  0.240E-02    1.21       1.0  T
   4   -116.0642227 -0.543174E-04  0.375E-03    1.21       2.7  T
   5   -116.0642236 -0.947571E-06  0.104E-03    1.21       9.8  T
   6   -116.0642237 -0.125097E-07  0.676E-04    1.21      15.1  T
   7   -116.0642237 -0.833671E-08  0.386E-04    1.21      26.5  T
     SCC iter.                  ...        0 min,  0.197 sec
     gradient                   ...        0 min,  0.069 sec
 * total energy  :  -114.0896272 Eh     change       -0.2174773E-03 Eh
   gradient norm :     0.0118064 Eh/α   predicted    -0.3144873E-03 (  44.61%)
   displ. norm   :     0.2855646 α      lambda       -0.4593774E-03
   maximum displ.:     0.1234215 α      in ANC's #17, #11, #13, ...

........................................................................
.............................. CYCLE   13 ..............................
........................................................................

 iter      E             dE          RMSdq      gap      omega  full diag
   1   -116.0666838 -0.116067E+03  0.453E-02    1.19       0.0  T
   2   -116.0666843 -0.541922E-06  0.267E-02    1.19       1.0  T
   3   -116.0666767  0.766326E-05  0.919E-03    1.19       1.1  T
   4   -116.0666849 -0.824268E-05  0.124E-03    1.19       8.2  T
   5   -116.0666850 -0.518393E-07  0.730E-04    1.19      14.0  T
   6   -116.0666850 -0.186167E-07  0.414E-04    1.19      24.7  T
     SCC iter.                  ...        0 min,  0.170 sec
     gradient                   ...        0 min,  0.075 sec
 * total energy  :  -114.0899250 Eh     change       -0.2977745E-03 Eh
   gradient norm :     0.0063710 Eh/α   predicted    -0.2484209E-03 ( -16.57%)
   displ. norm   :     0.2870597 α      lambda        0.4715930E-04
   maximum displ.:     0.1240541 α      in ANC's #17, #11, #13, ...

........................................................................
.............................. CYCLE   14 ..............................
........................................................................

 iter      E             dE          RMSdq      gap      omega  full diag
   1   -116.0679995 -0.116068E+03  0.454E-02    1.18       0.0  T
   2   -116.0680000 -0.490164E-06  0.268E-02    1.18       1.0  T
   3   -116.0679905  0.948149E-05  0.102E-02    1.18       1.0  T
   4   -116.0680007 -0.101689E-04  0.128E-03    1.18       8.0  T
   5   -116.0680007 -0.539088E-07  0.759E-04    1.18      13.4  T
   6   -116.0680008 -0.210068E-07  0.436E-04    1.18      23.4  T
     SCC iter.                  ...        0 min,  0.201 sec
     gradient                   ...        0 min,  0.105 sec
 * total energy  :  -114.0898998 Eh     change        0.2521703E-04 Eh
   gradient norm :     0.0135116 Eh/α   predicted     0.2552083E-04 (   1.20%)
   displ. norm   :     0.1579578 α      lambda       -0.3629146E-03
   maximum displ.:     0.0668560 α      in ANC's #47, #13, #11, ...

........................................................................
.............................. CYCLE   15 ..............................
........................................................................

 iter      E             dE          RMSdq      gap      omega  full diag
   1   -116.0661569 -0.116066E+03  0.351E-02    1.18       0.0  T
   2   -116.0661578 -0.817514E-06  0.207E-02    1.18       1.0  T
   3   -116.0661512  0.653922E-05  0.906E-03    1.18       1.1  T
   4   -116.0661582 -0.699478E-05  0.187E-03    1.18       5.4  T
   5   -116.0661584 -0.200555E-06  0.824E-04    1.18      12.4  T
   6   -116.0661584 -0.336359E-07  0.381E-04    1.18      26.8  T
     SCC iter.                  ...        0 min,  0.173 sec
     gradient                   ...        0 min,  0.083 sec
 * total energy  :  -114.0900651 Eh     change       -0.1653217E-03 Eh
   gradient norm :     0.0093420 Eh/α   predicted    -0.1859863E-03 (  12.50%)
   displ. norm   :     0.1418780 α      lambda       -0.2307950E-03
   maximum displ.:     0.0593343 α      in ANC's #11, #13, #8, ...

........................................................................
.............................. CYCLE   16 ..............................
........................................................................

 iter      E             dE          RMSdq      gap      omega  full diag
   1   -116.0633471 -0.116063E+03  0.301E-02    1.18       0.0  T
   2   -116.0633476 -0.486241E-06  0.179E-02    1.18       1.0  T
   3   -116.0633399  0.773803E-05  0.101E-02    1.18       1.0  T
   4   -116.0633481 -0.826897E-05  0.210E-03    1.18       4.9  T
   5   -116.0633484 -0.286657E-06  0.596E-04    1.18      17.1  T
   6   -116.0633484 -0.365277E-08  0.347E-04    1.18      29.4  T
     SCC iter.                  ...        0 min,  0.184 sec
     gradient                   ...        0 min,  0.092 sec
 * total energy  :  -114.0901484 Eh     change       -0.8331880E-04 Eh
   gradient norm :     0.0070608 Eh/α   predicted    -0.1177216E-03 (  41.29%)
   displ. norm   :     0.1317374 α      lambda       -0.1594541E-03
   maximum displ.:     0.0605595 α      in ANC's #11, #8, #2, ...

........................................................................
.............................. CYCLE   17 ..............................
........................................................................

 iter      E             dE          RMSdq      gap      omega  full diag
   1   -116.0648530 -0.116065E+03  0.192E-02    1.17       0.0  T
   2   -116.0648533 -0.280246E-06  0.115E-02    1.17       1.0  T
   3   -116.0648497  0.359574E-05  0.635E-03    1.17       1.6  T
   4   -116.0648535 -0.382270E-05  0.119E-03    1.17       8.6  T
   5   -116.0648536 -0.109197E-06  0.474E-04    1.17      21.5  T
   6   -116.0648536 -0.107408E-07  0.197E-04    1.17      51.8  T
     SCC iter.                  ...        0 min,  0.165 sec
     gradient                   ...        0 min,  0.076 sec
 * total energy  :  -114.0902524 Eh     change       -0.1040004E-03 Eh
   gradient norm :     0.0044665 Eh/α   predicted    -0.8111358E-04 ( -22.01%)
   displ. norm   :     0.3027251 α      lambda       -0.1919282E-03
   maximum displ.:     0.1470642 α      in ANC's #11, #8, #2, ...

........................................................................
.............................. CYCLE   18 ..............................
........................................................................

 iter      E             dE          RMSdq      gap      omega  full diag
   1   -116.0669398 -0.116067E+03  0.350E-02    1.17       0.0  T
   2   -116.0669400 -0.220792E-06  0.207E-02    1.17       1.0  T
   3   -116.0669345  0.554471E-05  0.785E-03    1.17       1.3  T
   4   -116.0669404 -0.596054E-05  0.106E-03    1.17       9.6  T
   5   -116.0669405 -0.576076E-07  0.541E-04    1.17      18.9  T
   6   -116.0669405 -0.889287E-08  0.251E-04    1.17      40.7  T
     SCC iter.                  ...        0 min,  0.180 sec
     gradient                   ...        0 min,  0.074 sec
 * total energy  :  -114.0903741 Eh     change       -0.1217010E-03 Eh
   gradient norm :     0.0048179 Eh/α   predicted    -0.1047594E-03 ( -13.92%)
   displ. norm   :     0.3460634 α      lambda       -0.1437927E-03
   maximum displ.:     0.1619181 α      in ANC's #11, #8, #2, ...

........................................................................
.............................. CYCLE   19 ..............................
........................................................................

 iter      E             dE          RMSdq      gap      omega  full diag
   1   -116.0640901 -0.116064E+03  0.439E-02    1.17       0.0  T
   2   -116.0640901  0.222683E-08  0.262E-02    1.17       1.0  T
   3   -116.0640702  0.198292E-04  0.155E-02    1.17       1.0  T
   4   -116.0640913 -0.211040E-04  0.159E-03    1.17       6.4  T
   5   -116.0640915 -0.175126E-06  0.644E-04    1.17      15.8  T
   6   -116.0640915 -0.109506E-07  0.365E-04    1.17      28.0  T
     SCC iter.                  ...        0 min,  0.198 sec
     gradient                   ...        0 min,  0.103 sec
 * total energy  :  -114.0904691 Eh     change       -0.9500515E-04 Eh
   gradient norm :     0.0057110 Eh/α   predicted    -0.8050981E-04 ( -15.26%)
   displ. norm   :     0.3616102 α      lambda       -0.1854726E-03
   maximum displ.:     0.1733910 α      in ANC's #11, #2, #8, ...

........................................................................
.............................. CYCLE   20 ..............................
........................................................................

 iter      E             dE          RMSdq      gap      omega  full diag
   1   -116.0651381 -0.116065E+03  0.378E-02    1.17       0.0  T
   2   -116.0651385 -0.418682E-06  0.223E-02    1.17       1.0  T
   3   -116.0651328  0.567984E-05  0.812E-03    1.17       1.3  T
   4   -116.0651389 -0.607823E-05  0.135E-03    1.17       7.5  T
   5   -116.0651390 -0.860391E-07  0.672E-04    1.17      15.2  T
   6   -116.0651390 -0.210888E-07  0.358E-04    1.17      28.5  T
     SCC iter.                  ...        0 min,  0.192 sec
     gradient                   ...        0 min,  0.093 sec
 * total energy  :  -114.0905666 Eh     change       -0.9745074E-04 Eh
   gradient norm :     0.0049681 Eh/α   predicted    -0.1048631E-03 (   7.61%)
   displ. norm   :     0.2617800 α      lambda       -0.1257318E-03
   maximum displ.:     0.1181495 α      in ANC's #11, #2, #8, ...
 * RMSD in coord.:     0.5877759 α      energy gain  -0.2176567E-01 Eh

generating ANC from exact Hessian ...
Using Lindh-Hessian (1995)
 Shifting diagonal of input Hessian by    9.9980126067335997E-003
 Lowest  eigenvalues of input Hessian
    0.000000    0.000000    0.000000    0.000000    0.000000    0.000000
    0.010000    0.010024    0.010035    0.010064    0.010131    0.010171
    0.010245    0.010356    0.010585    0.010718    0.010743    0.010905
 Highest eigenvalues
    1.916383    1.984020    1.996682    2.070802    2.095622    2.127958


........................................................................
.............................. CYCLE   21 ..............................
........................................................................

 iter      E             dE          RMSdq      gap      omega  full diag
   1   -116.0638370 -0.116064E+03  0.292E-02    1.17       0.0  T
   2   -116.0638372 -0.218480E-06  0.175E-02    1.17       1.0  T
   3   -116.0638308  0.638208E-05  0.887E-03    1.17       1.2  T
   4   -116.0638377 -0.685218E-05  0.121E-03    1.17       8.4  T
   5   -116.0638378 -0.596316E-07  0.617E-04    1.17      16.5  T
   6   -116.0638378 -0.130902E-07  0.301E-04    1.17      33.9  T
     SCC iter.                  ...        0 min,  0.200 sec
     gradient                   ...        0 min,  0.097 sec
 * total energy  :  -114.0906325 Eh     change       -0.6598712E-04 Eh
   gradient norm :     0.0051295 Eh/α   predicted     0.0000000E+00 (-100.00%)
   displ. norm   :     0.0525452 α      lambda       -0.7966698E-04
   maximum displ.:     0.0177971 α      in ANC's #5, #27, #17, ...

........................................................................
.............................. CYCLE   22 ..............................
........................................................................

 iter      E             dE          RMSdq      gap      omega  full diag
   1   -116.0648856 -0.116065E+03  0.126E-02    1.17       0.0  T
   2   -116.0648856 -0.591789E-07  0.771E-03    1.17       1.3  T
   3   -116.0648833  0.234946E-05  0.519E-03    1.17       2.0  T
   4   -116.0648858 -0.257026E-05  0.641E-04    1.17      15.9  T
   5   -116.0648859 -0.216469E-07  0.291E-04    1.17      35.1  T
   6   -116.0648859 -0.328885E-08  0.157E-04    1.17      64.9  T
     SCC iter.                  ...        0 min,  0.191 sec
     gradient                   ...        0 min,  0.079 sec
 * total energy  :  -114.0906931 Eh     change       -0.6053606E-04 Eh
   gradient norm :     0.0019808 Eh/α   predicted    -0.4010439E-04 ( -33.75%)
   displ. norm   :     0.1734040 α      lambda       -0.8666754E-04
   maximum displ.:     0.0660718 α      in ANC's #5, #27, #17, ...

........................................................................
.............................. CYCLE   23 ..............................
........................................................................

 iter      E             dE          RMSdq      gap      omega  full diag
   1   -116.0663384 -0.116066E+03  0.346E-02    1.17       0.0  T
   2   -116.0663387 -0.340362E-06  0.207E-02    1.17       1.0  T
   3   -116.0663255  0.132416E-04  0.123E-02    1.17       1.0  T
   4   -116.0663396 -0.141793E-04  0.157E-03    1.17       6.5  T
   5   -116.0663398 -0.157249E-06  0.638E-04    1.17      16.0  T
   6   -116.0663398 -0.175031E-07  0.328E-04    1.17      31.1  T
     SCC iter.                  ...        0 min,  0.171 sec
     gradient                   ...        0 min,  0.077 sec
 * total energy  :  -114.0907612 Eh     change       -0.6807922E-04 Eh
   gradient norm :     0.0043304 Eh/α   predicted    -0.4391335E-04 ( -35.50%)
   displ. norm   :     0.0703547 α      lambda       -0.3708456E-04
   maximum displ.:     0.0320164 α      in ANC's #5, #2, #27, ...

........................................................................
.............................. CYCLE   24 ..............................
........................................................................

 iter      E             dE          RMSdq      gap      omega  full diag
   1   -116.0662383 -0.116066E+03  0.122E-02    1.17       0.0  T
   2   -116.0662383 -0.231458E-07  0.722E-03    1.17       1.4  T
   3   -116.0662370  0.130734E-05  0.383E-03    1.17       2.7  T
   4   -116.0662384 -0.138625E-05  0.540E-04    1.17      18.9  T
   5   -116.0662384 -0.199079E-07  0.198E-04    1.17      51.5  T
   6   -116.0662384 -0.153928E-08  0.780E-05    1.17     130.8  T
     SCC iter.                  ...        0 min,  0.162 sec
     gradient                   ...        0 min,  0.125 sec
 * total energy  :  -114.0907944 Eh     change       -0.3323078E-04 Eh
   gradient norm :     0.0032500 Eh/α   predicted    -0.1863489E-04 ( -43.92%)
   displ. norm   :     0.2550834 α      lambda       -0.1146561E-03
   maximum displ.:     0.1183152 α      in ANC's #5, #2, #27, ...

........................................................................
.............................. CYCLE   25 ..............................
........................................................................

 iter      E             dE          RMSdq      gap      omega  full diag
   1   -116.0656959 -0.116066E+03  0.416E-02    1.16       0.0  T
   2   -116.0656963 -0.454852E-06  0.246E-02    1.16       1.0  T
   3   -116.0656870  0.932690E-05  0.101E-02    1.16       1.0  T
   4   -116.0656969 -0.990144E-05  0.162E-03    1.16       6.3  T
   5   -116.0656971 -0.166269E-06  0.715E-04    1.16      14.3  T
   6   -116.0656971 -0.231710E-07  0.270E-04    1.16      37.8  T
     SCC iter.                  ...        0 min,  0.233 sec
     gradient                   ...        0 min,  0.087 sec
 * total energy  :  -114.0908694 Eh     change       -0.7502332E-04 Eh
   gradient norm :     0.0017981 Eh/α   predicted    -0.6108017E-04 ( -18.59%)
   displ. norm   :     0.2345068 α      lambda       -0.3871501E-04
   maximum displ.:     0.1179529 α      in ANC's #5, #2, #10, ...

........................................................................
.............................. CYCLE   26 ..............................
........................................................................

 iter      E             dE          RMSdq      gap      omega  full diag
   1   -116.0657006 -0.116066E+03  0.330E-02    1.16       0.0  T
   2   -116.0657009 -0.327460E-06  0.195E-02    1.16       1.0  T
   3   -116.0656965  0.435633E-05  0.702E-03    1.16       1.5  T
   4   -116.0657012 -0.464141E-05  0.122E-03    1.16       8.4  T
   5   -116.0657013 -0.929402E-07  0.545E-04    1.16      18.7  T
   6   -116.0657013 -0.140937E-07  0.214E-04    1.16      47.7  T
     SCC iter.                  ...        0 min,  0.178 sec
     gradient                   ...        0 min,  0.090 sec
 * total energy  :  -114.0909108 Eh     change       -0.4137236E-04 Eh
   gradient norm :     0.0034255 Eh/α   predicted    -0.1984628E-04 ( -52.03%)
   displ. norm   :     0.1499557 α      lambda       -0.5154938E-04
   maximum displ.:     0.0794039 α      in ANC's #5, #2, #10, ...

........................................................................
.............................. CYCLE   27 ..............................
........................................................................

 iter      E             dE          RMSdq      gap      omega  full diag
   1   -116.0665478 -0.116067E+03  0.165E-02    1.17       0.0  T
   2   -116.0665478 -0.961334E-07  0.978E-03    1.17       1.0  T
   3   -116.0665471  0.760305E-06  0.289E-03    1.17       3.5  T
   4   -116.0665479 -0.831210E-06  0.439E-04    1.17      23.2  T
   5   -116.0665479 -0.872005E-08  0.243E-04    1.17      42.1  T
     SCC iter.                  ...        0 min,  0.162 sec
     gradient                   ...        0 min,  0.075 sec
 * total energy  :  -114.0909570 Eh     change       -0.4625155E-04 Eh
   gradient norm :     0.0030174 Eh/α   predicted    -0.2635475E-04 ( -43.02%)
   displ. norm   :     0.3646560 α      lambda       -0.1240347E-03
   maximum displ.:     0.1938408 α      in ANC's #5, #2, #10, ...

........................................................................
.............................. CYCLE   28 ..............................
........................................................................

 iter      E             dE          RMSdq      gap      omega  full diag
   1   -116.0671639 -0.116067E+03  0.365E-02    1.17       0.0  T
   2   -116.0671644 -0.419644E-06  0.217E-02    1.17       1.0  T
   3   -116.0671606  0.372145E-05  0.634E-03    1.17       1.6  T
   4   -116.0671647 -0.408111E-05  0.813E-04    1.17      12.6  T
   5   -116.0671647 -0.272443E-07  0.463E-04    1.17      22.1  T
   6   -116.0671647 -0.336378E-08  0.285E-04    1.17      35.9  T
     SCC iter.                  ...        0 min,  0.185 sec
     gradient                   ...        0 min,  0.081 sec
 * total energy  :  -114.0910542 Eh     change       -0.9712536E-04 Eh
   gradient norm :     0.0024904 Eh/α   predicted    -0.7027911E-04 ( -27.64%)
   displ. norm   :     0.3801642 α      lambda       -0.9664484E-04
   maximum displ.:     0.2074738 α      in ANC's #5, #2, #14, ...

........................................................................
.............................. CYCLE   29 ..............................
........................................................................

 iter      E             dE          RMSdq      gap      omega  full diag
   1   -116.0666864 -0.116067E+03  0.353E-02    1.17       0.0  T
   2   -116.0666867 -0.385699E-06  0.209E-02    1.17       1.0  T
   3   -116.0666835  0.324519E-05  0.597E-03    1.17       1.7  T
   4   -116.0666870 -0.354220E-05  0.899E-04    1.17      11.4  T
   5   -116.0666871 -0.307010E-07  0.561E-04    1.17      18.2  T
   6   -116.0666871 -0.111976E-07  0.282E-04    1.17      36.1  T
     SCC iter.                  ...        0 min,  0.190 sec
     gradient                   ...        0 min,  0.082 sec
 * total energy  :  -114.0911268 Eh     change       -0.7265886E-04 Eh
   gradient norm :     0.0031549 Eh/α   predicted    -0.5530738E-04 ( -23.88%)
   displ. norm   :     0.2977065 α      lambda       -0.8050930E-04
   maximum displ.:     0.1690652 α      in ANC's #5, #2, #14, ...

........................................................................
.............................. CYCLE   30 ..............................
........................................................................

 iter      E             dE          RMSdq      gap      omega  full diag
   1   -116.0670417 -0.116067E+03  0.247E-02    1.17       0.0  T
   2   -116.0670419 -0.232485E-06  0.146E-02    1.17       1.0  T
   3   -116.0670402  0.167185E-05  0.430E-03    1.17       2.4  T
   4   -116.0670420 -0.181012E-05  0.717E-04    1.17      14.2  T
   5   -116.0670421 -0.247790E-07  0.406E-04    1.17      25.1  T
   6   -116.0670421 -0.711513E-08  0.208E-04    1.17      49.1  T
     SCC iter.                  ...        0 min,  0.174 sec
     gradient                   ...        0 min,  0.063 sec
 * total energy  :  -114.0911898 Eh     change       -0.6302616E-04 Eh
   gradient norm :     0.0022850 Eh/α   predicted    -0.4382448E-04 ( -30.47%)
   displ. norm   :     0.3876875 α      lambda       -0.8904500E-04
   maximum displ.:     0.2225749 α      in ANC's #5, #2, #14, ...

........................................................................
.............................. CYCLE   31 ..............................
........................................................................

 iter      E             dE          RMSdq      gap      omega  full diag
   1   -116.0656410 -0.116066E+03  0.344E-02    1.17       0.0  T
   2   -116.0656414 -0.336679E-06  0.204E-02    1.17       1.0  T
   3   -116.0656382  0.321914E-05  0.592E-03    1.17       1.7  T
   4   -116.0656416 -0.345150E-05  0.109E-03    1.17       9.4  T
   5   -116.0656417 -0.542004E-07  0.622E-04    1.17      16.4  T
   6   -116.0656417 -0.180037E-07  0.257E-04    1.17      39.7  T
     SCC iter.                  ...        0 min,  0.191 sec
     gradient                   ...        0 min,  0.080 sec
 * total energy  :  -114.0912613 Eh     change       -0.7148720E-04 Eh
   gradient norm :     0.0032586 Eh/α   predicted    -0.5121657E-04 ( -28.36%)
   displ. norm   :     0.4090354 α      lambda       -0.1399945E-03
   maximum displ.:     0.2409576 α      in ANC's #5, #2, #3, ...

........................................................................
.............................. CYCLE   32 ..............................
........................................................................

 iter      E             dE          RMSdq      gap      omega  full diag
   1   -116.0660004 -0.116066E+03  0.374E-02    1.17       0.0  T
   2   -116.0660009 -0.469957E-06  0.221E-02    1.17       1.0  T
   3   -116.0659966  0.428871E-05  0.666E-03    1.17       1.5  T
   4   -116.0660011 -0.457980E-05  0.118E-03    1.17       8.7  T
   5   -116.0660012 -0.673711E-07  0.649E-04    1.17      15.7  T
   6   -116.0660012 -0.226759E-07  0.291E-04    1.17      35.1  T
     SCC iter.                  ...        0 min,  0.228 sec
     gradient                   ...        0 min,  0.091 sec
 * total energy  :  -114.0913625 Eh     change       -0.1011445E-03 Eh
   gradient norm :     0.0024988 Eh/α   predicted    -0.8170896E-04 ( -19.22%)
   displ. norm   :     0.5212443 α      lambda       -0.1164128E-03
   maximum displ.:     0.3096918 α      in ANC's #5, #2, #3, ...

........................................................................
.............................. CYCLE   33 ..............................
........................................................................

 iter      E             dE          RMSdq      gap      omega  full diag
   1   -116.0623565 -0.116062E+03  0.479E-02    1.16       0.0  T
   2   -116.0623576 -0.101325E-05  0.283E-02    1.16       1.0  T
   3   -116.0623514  0.614696E-05  0.805E-03    1.16       1.3  T
   4   -116.0623579 -0.650786E-05  0.193E-03    1.16       5.3  T
   5   -116.0623581 -0.214829E-06  0.901E-04    1.16      11.3  T
   6   -116.0623582 -0.333476E-07  0.437E-04    1.16      23.3  T
     SCC iter.                  ...        0 min,  0.241 sec
     gradient                   ...        0 min,  0.074 sec
 * total energy  :  -114.0914300 Eh     change       -0.6753435E-04 Eh
   gradient norm :     0.0057417 Eh/α   predicted    -0.7402273E-04 (   9.61%)
   displ. norm   :     0.2427789 α      lambda       -0.1317177E-03
   maximum displ.:     0.1384290 α      in ANC's #5, #2, #18, ...

........................................................................
.............................. CYCLE   34 ..............................
........................................................................

 iter      E             dE          RMSdq      gap      omega  full diag
   1   -116.0633838 -0.116063E+03  0.315E-02    1.16       0.0  T
   2   -116.0633846 -0.753759E-06  0.185E-02    1.16       1.0  T
   3   -116.0633825  0.202305E-05  0.485E-03    1.16       2.1  T
   4   -116.0633847 -0.213908E-05  0.128E-03    1.16       8.0  T
   5   -116.0633848 -0.116880E-06  0.566E-04    1.16      18.0  T
   6   -116.0633848 -0.184480E-07  0.249E-04    1.16      40.9  T
     SCC iter.                  ...        0 min,  0.208 sec
     gradient                   ...        0 min,  0.099 sec
 * total energy  :  -114.0915264 Eh     change       -0.9642098E-04 Eh
   gradient norm :     0.0032687 Eh/α   predicted    -0.6974190E-04 ( -27.67%)
   displ. norm   :     0.4179047 α      lambda       -0.1211662E-03
   maximum displ.:     0.2520580 α      in ANC's #5, #2, #3, ...

........................................................................
.............................. CYCLE   35 ..............................
........................................................................

 iter      E             dE          RMSdq      gap      omega  full diag
   1   -116.0626750 -0.116063E+03  0.471E-02    1.15       0.0  T
   2   -116.0626754 -0.443417E-06  0.278E-02    1.15       1.0  T
   3   -116.0626708  0.463794E-05  0.697E-03    1.15       1.5  T
   4   -116.0626758 -0.503419E-05  0.116E-03    1.15       8.8  T
   5   -116.0626759 -0.685142E-07  0.599E-04    1.15      17.0  T
   6   -116.0626759 -0.115908E-07  0.252E-04    1.15      40.4  T
     SCC iter.                  ...        0 min,  0.158 sec
     gradient                   ...        0 min,  0.075 sec
 * total energy  :  -114.0916264 Eh     change       -0.9991664E-04 Eh
   gradient norm :     0.0029892 Eh/α   predicted    -0.7116579E-04 ( -28.77%)
   displ. norm   :     0.4633357 α      lambda       -0.1755427E-03
   maximum displ.:     0.2688540 α      in ANC's #5, #2, #46, ...

........................................................................
.............................. CYCLE   36 ..............................
........................................................................

 iter      E             dE          RMSdq      gap      omega  full diag
   1   -116.0638753 -0.116064E+03  0.620E-02    1.15       0.0  T
   2   -116.0638764 -0.113418E-05  0.366E-02    1.15       1.0  T
   3   -116.0638676  0.877925E-05  0.996E-03    1.15       1.0  T
   4   -116.0638772 -0.955067E-05  0.160E-03    1.15       6.4  T
   5   -116.0638773 -0.135741E-06  0.893E-04    1.15      11.4  T
   6   -116.0638773 -0.384117E-07  0.351E-04    1.15      29.1  T
     SCC iter.                  ...        0 min,  0.189 sec
     gradient                   ...        0 min,  0.082 sec
 * total energy  :  -114.0917573 Eh     change       -0.1309949E-03 Eh
   gradient norm :     0.0023861 Eh/α   predicted    -0.1066147E-03 ( -18.61%)
   displ. norm   :     0.6336259 α      lambda       -0.1585567E-03
   maximum displ.:     0.3859667 α      in ANC's #5, #2, #3, ...

........................................................................
.............................. CYCLE   37 ..............................
........................................................................

 iter      E             dE          RMSdq      gap      omega  full diag
   1   -116.0598487 -0.116060E+03  0.733E-02    1.14       0.0  T
   2   -116.0598510 -0.229027E-05  0.432E-02    1.14       1.0  T
   3   -116.0598418  0.913141E-05  0.998E-03    1.14       1.0  T
   4   -116.0598516 -0.976273E-05  0.263E-03    1.14       3.9  T
   5   -116.0598520 -0.428770E-06  0.111E-03    1.14       9.2  T
   6   -116.0598521 -0.473401E-07  0.568E-04    1.14      18.0  T
   7   -116.0598521 -0.641077E-08  0.205E-04    1.14      49.7  T
     SCC iter.                  ...        0 min,  0.255 sec
     gradient                   ...        0 min,  0.072 sec
 * total energy  :  -114.0918343 Eh     change       -0.7692533E-04 Eh
   gradient norm :     0.0071072 Eh/α   predicted    -0.1111121E-03 (  44.44%)
   displ. norm   :     0.2401622 α      lambda       -0.1888717E-03
   maximum displ.:     0.0867183 α      in ANC's #2, #5, #16, ...

........................................................................
.............................. CYCLE   38 ..............................
........................................................................

 iter      E             dE          RMSdq      gap      omega  full diag
   1   -116.0649560 -0.116065E+03  0.419E-02    1.14       0.0  T
   2   -116.0649577 -0.168732E-05  0.246E-02    1.14       1.0  T
   3   -116.0649525  0.520583E-05  0.806E-03    1.14       1.3  T
   4   -116.0649581 -0.565010E-05  0.171E-03    1.14       6.0  T
   5   -116.0649583 -0.173171E-06  0.893E-04    1.14      11.4  T
   6   -116.0649583 -0.419939E-07  0.348E-04    1.14      29.3  T
     SCC iter.                  ...        0 min,  0.200 sec
     gradient                   ...        0 min,  0.070 sec
 * total energy  :  -114.0919427 Eh     change       -0.1084283E-03 Eh
   gradient norm :     0.0045257 Eh/α   predicted    -0.9988523E-04 (  -7.88%)
   displ. norm   :     0.3065991 α      lambda       -0.8190847E-04
   maximum displ.:     0.1846551 α      in ANC's #5, #2, #46, ...

........................................................................
.............................. CYCLE   39 ..............................
........................................................................

 iter      E             dE          RMSdq      gap      omega  full diag
   1   -116.0647940 -0.116065E+03  0.355E-02    1.14       0.0  T
   2   -116.0647942 -0.212922E-06  0.209E-02    1.14       1.0  T
   3   -116.0647910  0.319365E-05  0.574E-03    1.14       1.8  T
   4   -116.0647945 -0.344281E-05  0.810E-04    1.14      12.6  T
   5   -116.0647945 -0.361034E-07  0.397E-04    1.14      25.7  T
   6   -116.0647945 -0.537267E-08  0.188E-04    1.14      54.3  T
     SCC iter.                  ...        0 min,  0.200 sec
     gradient                   ...        0 min,  0.082 sec
 * total energy  :  -114.0920117 Eh     change       -0.6901310E-04 Eh
   gradient norm :     0.0040115 Eh/α   predicted    -0.4480557E-04 ( -35.08%)
   displ. norm   :     0.4094631 α      lambda       -0.1516601E-03
   maximum displ.:     0.2495601 α      in ANC's #5, #2, #3, ...

........................................................................
.............................. CYCLE   40 ..............................
........................................................................

 iter      E             dE          RMSdq      gap      omega  full diag
   1   -116.0663683 -0.116066E+03  0.421E-02    1.13       0.0  T
   2   -116.0663685 -0.190680E-06  0.248E-02    1.13       1.0  T
   3   -116.0663597  0.875834E-05  0.952E-03    1.13       1.1  T
   4   -116.0663691 -0.934047E-05  0.994E-04    1.13      10.3  T
   5   -116.0663691 -0.507568E-07  0.538E-04    1.13      19.0  T
   6   -116.0663691 -0.119647E-07  0.281E-04    1.13      36.3  T
     SCC iter.                  ...        0 min,  0.203 sec
     gradient                   ...        0 min,  0.086 sec
 * total energy  :  -114.0921081 Eh     change       -0.9633877E-04 Eh
   gradient norm :     0.0026129 Eh/α   predicted    -0.8854716E-04 (  -8.09%)
   displ. norm   :     0.4683065 α      lambda       -0.7302633E-04
   maximum displ.:     0.2917507 α      in ANC's #5, #2, #3, ...

........................................................................
.............................. CYCLE   41 ..............................
........................................................................

 iter      E             dE          RMSdq      gap      omega  full diag
   1   -116.0631776 -0.116063E+03  0.501E-02    1.13       0.0  T
   2   -116.0631783 -0.653798E-06  0.295E-02    1.13       1.0  T
   3   -116.0631727  0.552098E-05  0.787E-03    1.13       1.3  T
   4   -116.0631786 -0.589355E-05  0.148E-03    1.13       6.9  T
   5   -116.0631787 -0.123703E-06  0.733E-04    1.13      13.9  T
   6   -116.0631788 -0.284811E-07  0.330E-04    1.13      30.9  T
     SCC iter.                  ...        0 min,  0.180 sec
     gradient                   ...        0 min,  0.089 sec
 * total energy  :  -114.0921495 Eh     change       -0.4147980E-04 Eh
   gradient norm :     0.0047255 Eh/α   predicted    -0.4452555E-04 (   7.34%)
   displ. norm   :     0.2068529 α      lambda       -0.7145514E-04
   maximum displ.:     0.1271412 α      in ANC's #5, #2, #6, ...

........................................................................
.............................. CYCLE   42 ..............................
........................................................................

 iter      E             dE          RMSdq      gap      omega  full diag
   1   -116.0646647 -0.116065E+03  0.192E-02    1.12       0.0  T
   2   -116.0646649 -0.249837E-06  0.113E-02    1.12       1.0  T
   3   -116.0646636  0.135967E-05  0.414E-03    1.12       2.5  T
   4   -116.0646650 -0.139650E-05  0.106E-03    1.12       9.6  T
   5   -116.0646650 -0.712300E-07  0.342E-04    1.12      29.8  T
   6   -116.0646650 -0.564346E-08  0.181E-04    1.12      56.3  T
     SCC iter.                  ...        0 min,  0.244 sec
     gradient                   ...        0 min,  0.082 sec
 * total energy  :  -114.0922005 Eh     change       -0.5095484E-04 Eh
   gradient norm :     0.0036546 Eh/α   predicted    -0.3725957E-04 ( -26.88%)
   displ. norm   :     0.3656749 α      lambda       -0.8826672E-04
   maximum displ.:     0.2347550 α      in ANC's #5, #2, #3, ...
 * RMSD in coord.:     0.6429301 α      energy gain  -0.1633929E-02 Eh

generating ANC from exact Hessian ...
Using Lindh-Hessian (1995)
 Shifting diagonal of input Hessian by    9.9994458765989089E-003
 Lowest  eigenvalues of input Hessian
    0.000000    0.000000    0.000000    0.000000    0.000000    0.000000
    0.010000    0.010027    0.010036    0.010065    0.010133    0.010176
    0.010250    0.010386    0.010603    0.010727    0.010736    0.010931
 Highest eigenvalues
    1.915795    1.983655    1.997392    2.069130    2.095226    2.128967


........................................................................
.............................. CYCLE   43 ..............................
........................................................................

 iter      E             dE          RMSdq      gap      omega  full diag
   1   -116.0654925 -0.116065E+03  0.303E-02    1.12       0.0  T
   2   -116.0654926 -0.186990E-06  0.179E-02    1.12       1.0  T
   3   -116.0654897  0.292468E-05  0.620E-03    1.12       1.6  T
   4   -116.0654928 -0.310542E-05  0.954E-04    1.12      10.7  T
   5   -116.0654929 -0.444712E-07  0.463E-04    1.12      22.1  T
   6   -116.0654929 -0.105441E-07  0.196E-04    1.12      52.1  T
     SCC iter.                  ...        0 min,  0.201 sec
     gradient                   ...        0 min,  0.081 sec
 * total energy  :  -114.0922656 Eh     change       -0.6514418E-04 Eh
   gradient norm :     0.0029240 Eh/α   predicted     0.0000000E+00 (-100.00%)
   displ. norm   :     0.0320701 α      lambda       -0.1993400E-04
   maximum displ.:     0.0093588 α      in ANC's #24, #5, #26, ...

........................................................................
.............................. CYCLE   44 ..............................
........................................................................

 iter      E             dE          RMSdq      gap      omega  full diag
   1   -116.0662055 -0.116066E+03  0.637E-03    1.12       0.0  T
   2   -116.0662055 -0.183541E-07  0.378E-03    1.12       2.7  T
   3   -116.0662052  0.321842E-06  0.191E-03    1.12       5.3  T
   4   -116.0662055 -0.342756E-06  0.308E-04    1.12      33.1  T
   5   -116.0662055 -0.514684E-08  0.132E-04    1.12      77.5  T
     SCC iter.                  ...        0 min,  0.154 sec
     gradient                   ...        0 min,  0.084 sec
 * total energy  :  -114.0922871 Eh     change       -0.2144642E-04 Eh
   gradient norm :     0.0015577 Eh/α   predicted    -0.1328016E-04 ( -38.08%)
   displ. norm   :     0.1303231 α      lambda       -0.3910377E-04
   maximum displ.:     0.0387433 α      in ANC's #24, #5, #13, ...

........................................................................
.............................. CYCLE   45 ..............................
........................................................................

 iter      E             dE          RMSdq      gap      omega  full diag
   1   -116.0672592 -0.116067E+03  0.206E-02    1.13       0.0  T
   2   -116.0672594 -0.144411E-06  0.121E-02    1.13       1.0  T
   3   -116.0672576  0.182025E-05  0.447E-03    1.13       2.3  T
   4   -116.0672595 -0.194677E-05  0.730E-04    1.13      14.0  T
   5   -116.0672595 -0.294394E-07  0.330E-04    1.13      30.9  T
   6   -116.0672595 -0.540039E-08  0.170E-04    1.13      60.1  T
     SCC iter.                  ...        0 min,  0.171 sec
     gradient                   ...        0 min,  0.085 sec
 * total energy  :  -114.0923155 Eh     change       -0.2837264E-04 Eh
   gradient norm :     0.0025084 Eh/α   predicted    -0.2117258E-04 ( -25.38%)
   displ. norm   :     0.0273667 α      lambda       -0.1057429E-04
   maximum displ.:     0.0103342 α      in ANC's #5, #9, #13, ...

........................................................................
.............................. CYCLE   46 ..............................
........................................................................

 iter      E             dE          RMSdq      gap      omega  full diag
   1   -116.0669050 -0.116067E+03  0.379E-03    1.13       0.0  T
   2   -116.0669050 -0.372202E-08  0.228E-03    1.13       4.5  T
   3   -116.0669048  0.148666E-06  0.132E-03    1.13       7.7  T
   4   -116.0669050 -0.159086E-06  0.179E-04    1.13      56.9  T
   5   -116.0669050 -0.189313E-08  0.782E-05    1.13     130.5  T
     SCC iter.                  ...        0 min,  0.154 sec
     gradient                   ...        0 min,  0.069 sec
 * total energy  :  -114.0923261 Eh     change       -0.1059957E-04 Eh
   gradient norm :     0.0018762 Eh/α   predicted    -0.5860990E-05 ( -44.71%)
   displ. norm   :     0.2501765 α      lambda       -0.5262558E-04
   maximum displ.:     0.0943340 α      in ANC's #5, #9, #13, ...

........................................................................
.............................. CYCLE   47 ..............................
........................................................................

 iter      E             dE          RMSdq      gap      omega  full diag
   1   -116.0642955 -0.116064E+03  0.323E-02    1.13       0.0  T
   2   -116.0642958 -0.282805E-06  0.193E-02    1.13       1.0  T
   3   -116.0642888  0.707179E-05  0.921E-03    1.13       1.1  T
   4   -116.0642963 -0.751073E-05  0.136E-03    1.13       7.5  T
   5   -116.0642964 -0.108674E-06  0.602E-04    1.13      16.9  T
   6   -116.0642964 -0.179944E-07  0.284E-04    1.13      35.9  T
     SCC iter.                  ...        0 min,  0.220 sec
     gradient                   ...        0 min,  0.058 sec
 * total energy  :  -114.0923589 Eh     change       -0.3289390E-04 Eh
   gradient norm :     0.0032125 Eh/α   predicted    -0.2704513E-04 ( -17.78%)
   displ. norm   :     0.0259531 α      lambda       -0.1508889E-04
   maximum displ.:     0.0113027 α      in ANC's #5, #9, #2, ...

........................................................................
.............................. CYCLE   48 ..............................
........................................................................

 iter      E             dE          RMSdq      gap      omega  full diag
   1   -116.0649566 -0.116065E+03  0.390E-03    1.13       0.0  T
   2   -116.0649567 -0.144502E-07  0.232E-03    1.13       4.4  T
   3   -116.0649565  0.163625E-06  0.131E-03    1.13       7.8  T
   4   -116.0649567 -0.174817E-06  0.251E-04    1.13      40.6  T
   5   -116.0649567 -0.343123E-08  0.951E-05    1.13     107.3  T
     SCC iter.                  ...        0 min,  0.154 sec
     gradient                   ...        0 min,  0.119 sec
 * total energy  :  -114.0923722 Eh     change       -0.1328025E-04 Eh
   gradient norm :     0.0021995 Eh/α   predicted    -0.7571932E-05 ( -42.98%)
   displ. norm   :     0.1647798 α      lambda       -0.4802953E-04
   maximum displ.:     0.0709620 α      in ANC's #5, #9, #2, ...

........................................................................
.............................. CYCLE   49 ..............................
........................................................................

 iter      E             dE          RMSdq      gap      omega  full diag
   1   -116.0663742 -0.116066E+03  0.207E-02    1.13       0.0  T
   2   -116.0663743 -0.107888E-06  0.123E-02    1.13       1.0  T
   3   -116.0663722  0.213669E-05  0.485E-03    1.13       2.1  T
   4   -116.0663745 -0.225570E-05  0.762E-04    1.13      13.4  T
   5   -116.0663745 -0.316659E-07  0.324E-04    1.13      31.5  T
   6   -116.0663745 -0.446796E-08  0.172E-04    1.13      59.2  T
     SCC iter.                  ...        0 min,  0.203 sec
     gradient                   ...        0 min,  0.080 sec
 * total energy  :  -114.0924036 Eh     change       -0.3135022E-04 Eh
   gradient norm :     0.0009128 Eh/α   predicted    -0.2480914E-04 ( -20.86%)
   displ. norm   :     0.2285676 α      lambda       -0.1868651E-04
   maximum displ.:     0.1003266 α      in ANC's #5, #9, #2, ...

........................................................................
.............................. CYCLE   50 ..............................
........................................................................

 iter      E             dE          RMSdq      gap      omega  full diag
   1   -116.0662517 -0.116066E+03  0.268E-02    1.13       0.0  T
   2   -116.0662519 -0.168290E-06  0.159E-02    1.13       1.0  T
   3   -116.0662502  0.168306E-05  0.445E-03    1.13       2.3  T
   4   -116.0662520 -0.178832E-05  0.817E-04    1.13      12.5  T
   5   -116.0662520 -0.346334E-07  0.408E-04    1.13      25.0  T
   6   -116.0662520 -0.749820E-08  0.182E-04    1.13      56.0  T
     SCC iter.                  ...        0 min,  0.187 sec
     gradient                   ...        0 min,  0.078 sec
 * total energy  :  -114.0924222 Eh     change       -0.1866095E-04 Eh
   gradient norm :     0.0020857 Eh/α   predicted    -0.9568126E-05 ( -48.73%)
   displ. norm   :     0.1173765 α      lambda       -0.1703623E-04
   maximum displ.:     0.0554869 α      in ANC's #5, #2, #9, ...

........................................................................
.............................. CYCLE   51 ..............................
........................................................................

 iter      E             dE          RMSdq      gap      omega  full diag
   1   -116.0663464 -0.116066E+03  0.131E-02    1.13       0.0  T
   2   -116.0663465 -0.419467E-07  0.776E-03    1.13       1.3  T
   3   -116.0663462  0.251802E-06  0.174E-03    1.13       5.9  T
   4   -116.0663465 -0.271345E-06  0.385E-04    1.13      26.5  T
   5   -116.0663465 -0.675088E-08  0.200E-04    1.13      51.2  T
     SCC iter.                  ...        0 min,  0.133 sec
     gradient                   ...        0 min,  0.108 sec
 * total energy  :  -114.0924362 Eh     change       -0.1394249E-04 Eh
   gradient norm :     0.0014538 Eh/α   predicted    -0.8635889E-05 ( -38.06%)
   displ. norm   :     0.2964820 α      lambda       -0.2404276E-04
   maximum displ.:     0.1437557 α      in ANC's #5, #2, #9, ...

........................................................................
.............................. CYCLE   52 ..............................
........................................................................

 iter      E             dE          RMSdq      gap      omega  full diag
   1   -116.0656752 -0.116066E+03  0.320E-02    1.13       0.0  T
   2   -116.0656754 -0.211659E-06  0.190E-02    1.13       1.0  T
   3   -116.0656741  0.128112E-05  0.391E-03    1.13       2.6  T
   4   -116.0656755 -0.141099E-05  0.761E-04    1.13      13.4  T
   5   -116.0656755 -0.153596E-07  0.499E-04    1.13      20.5  T
   6   -116.0656755 -0.112189E-07  0.216E-04    1.13      47.2  T
     SCC iter.                  ...        0 min,  0.196 sec
     gradient                   ...        0 min,  0.059 sec
 * total energy  :  -114.0924564 Eh     change       -0.2018684E-04 Eh
   gradient norm :     0.0014297 Eh/α   predicted    -0.1249243E-04 ( -38.12%)
   displ. norm   :     0.0832483 α      lambda       -0.1220340E-04
   maximum displ.:     0.0410709 α      in ANC's #5, #2, #18, ...

........................................................................
.............................. CYCLE   53 ..............................
........................................................................

 iter      E             dE          RMSdq      gap      omega  full diag
   1   -116.0671194 -0.116067E+03  0.118E-02    1.13       0.0  T
   2   -116.0671195 -0.168911E-06  0.691E-03    1.13       1.5  T
   3   -116.0671194  0.154579E-06  0.146E-03    1.13       7.0  T
   4   -116.0671195 -0.119018E-06  0.857E-04    1.13      11.9  T
   5   -116.0671196 -0.623136E-07  0.187E-04    1.13      54.5  T
     SCC iter.                  ...        0 min,  0.147 sec
     gradient                   ...        0 min,  0.068 sec
 * total energy  :  -114.0924664 Eh     change       -0.1003339E-04 Eh
   gradient norm :     0.0016764 Eh/α   predicted    -0.6129051E-05 ( -38.91%)
   displ. norm   :     0.1819679 α      lambda       -0.1508685E-04
   maximum displ.:     0.0951442 α      in ANC's #5, #2, #9, ...

........................................................................
.............................. CYCLE   54 ..............................
........................................................................

 iter      E             dE          RMSdq      gap      omega  full diag
   1   -116.0671175 -0.116067E+03  0.191E-02    1.13       0.0  T
   2   -116.0671176 -0.950913E-07  0.113E-02    1.13       1.0  T
   3   -116.0671174  0.193742E-06  0.158E-03    1.13       6.5  T
   4   -116.0671176 -0.211455E-06  0.540E-04    1.13      18.9  T
   5   -116.0671176 -0.170453E-07  0.249E-04    1.13      41.0  T
     SCC iter.                  ...        0 min,  0.173 sec
     gradient                   ...        0 min,  0.097 sec
 * total energy  :  -114.0924844 Eh     change       -0.1804024E-04 Eh
   gradient norm :     0.0010792 Eh/α   predicted    -0.7661880E-05 ( -57.53%)
   displ. norm   :     0.2747518 α      lambda       -0.2244542E-04
   maximum displ.:     0.1456069 α      in ANC's #5, #2, #3, ...

........................................................................
.............................. CYCLE   55 ..............................
........................................................................

 iter      E             dE          RMSdq      gap      omega  full diag
   1   -116.0668667 -0.116067E+03  0.307E-02    1.13       0.0  T
   2   -116.0668669 -0.210136E-06  0.182E-02    1.13       1.0  T
   3   -116.0668667  0.223261E-06  0.188E-03    1.13       5.4  T
   4   -116.0668669 -0.275604E-06  0.686E-04    1.13      14.9  T
   5   -116.0668670 -0.231010E-07  0.326E-04    1.13      31.3  T
     SCC iter.                  ...        0 min,  0.157 sec
     gradient                   ...        0 min,  0.079 sec
 * total energy  :  -114.0925080 Eh     change       -0.2360545E-04 Eh
   gradient norm :     0.0018786 Eh/α   predicted    -0.1160220E-04 ( -50.85%)
   displ. norm   :     0.2138042 α      lambda       -0.2352625E-04
   maximum displ.:     0.1103228 α      in ANC's #5, #2, #3, ...

........................................................................
.............................. CYCLE   56 ..............................
........................................................................

 iter      E             dE          RMSdq      gap      omega  full diag
   1   -116.0674374 -0.116067E+03  0.306E-02    1.13       0.0  T
   2   -116.0674376 -0.188918E-06  0.180E-02    1.13       1.0  T
   3   -116.0674363  0.122173E-05  0.368E-03    1.13       2.8  T
   4   -116.0674377 -0.133875E-05  0.668E-04    1.13      15.3  T
   5   -116.0674377 -0.183527E-07  0.425E-04    1.13      24.0  T
   6   -116.0674377 -0.820165E-08  0.173E-04    1.13      58.9  T
     SCC iter.                  ...        0 min,  0.212 sec
     gradient                   ...        0 min,  0.085 sec
 * total energy  :  -114.0925325 Eh     change       -0.2447465E-04 Eh
   gradient norm :     0.0014477 Eh/α   predicted    -0.1200425E-04 ( -50.95%)
   displ. norm   :     0.2974329 α      lambda       -0.2462474E-04
   maximum displ.:     0.1610761 α      in ANC's #5, #2, #3, ...

........................................................................
.............................. CYCLE   57 ..............................
........................................................................

 iter      E             dE          RMSdq      gap      omega  full diag
   1   -116.0663968 -0.116066E+03  0.388E-02    1.13       0.0  T
   2   -116.0663973 -0.432699E-06  0.229E-02    1.13       1.0  T
   3   -116.0663958  0.148881E-05  0.410E-03    1.13       2.5  T
   4   -116.0663974 -0.164576E-05  0.937E-04    1.13      10.9  T
   5   -116.0663975 -0.453847E-07  0.483E-04    1.13      21.1  T
   6   -116.0663975 -0.674919E-08  0.294E-04    1.13      34.7  T
     SCC iter.                  ...        0 min,  0.220 sec
     gradient                   ...        0 min,  0.079 sec
 * total energy  :  -114.0925554 Eh     change       -0.2292065E-04 Eh
   gradient norm :     0.0028971 Eh/α   predicted    -0.1279710E-04 ( -44.17%)
   displ. norm   :     0.1548290 α      lambda       -0.3853478E-04
   maximum displ.:     0.0780883 α      in ANC's #5, #2, #3, ...

........................................................................
.............................. CYCLE   58 ..............................
........................................................................

 iter      E             dE          RMSdq      gap      omega  full diag
   1   -116.0668358 -0.116067E+03  0.253E-02    1.12       0.0  T
   2   -116.0668360 -0.223743E-06  0.149E-02    1.12       1.0  T
   3   -116.0668342  0.184325E-05  0.448E-03    1.12       2.3  T
   4   -116.0668362 -0.199067E-05  0.696E-04    1.12      14.7  T
   5   -116.0668362 -0.240947E-07  0.440E-04    1.12      23.2  T
   6   -116.0668362 -0.114564E-07  0.160E-04    1.12      64.0  T
     SCC iter.                  ...        0 min,  0.174 sec
     gradient                   ...        0 min,  0.088 sec
 * total energy  :  -114.0925842 Eh     change       -0.2878708E-04 Eh
   gradient norm :     0.0018525 Eh/α   predicted    -0.1973057E-04 ( -31.46%)
   displ. norm   :     0.3992734 α      lambda       -0.4461430E-04
   maximum displ.:     0.2255866 α      in ANC's #5, #2, #3, ...

........................................................................
.............................. CYCLE   59 ..............................
........................................................................

 iter      E             dE          RMSdq      gap      omega  full diag
   1   -116.0652511 -0.116065E+03  0.523E-02    1.11       0.0  T
   2   -116.0652516 -0.509037E-06  0.308E-02    1.11       1.0  T
   3   -116.0652459  0.571302E-05  0.791E-03    1.11       1.3  T
   4   -116.0652522 -0.626177E-05  0.924E-04    1.11      11.0  T
   5   -116.0652522 -0.272585E-07  0.561E-04    1.11      18.2  T
   6   -116.0652522 -0.923980E-08  0.316E-04    1.11      32.3  T
     SCC iter.                  ...        0 min,  0.179 sec
     gradient                   ...        0 min,  0.081 sec
 * total energy  :  -114.0926279 Eh     change       -0.4365978E-04 Eh
   gradient norm :     0.0027395 Eh/α   predicted    -0.2388862E-04 ( -45.28%)
   displ. norm   :     0.1432901 α      lambda       -0.3758585E-04
   maximum displ.:     0.0804290 α      in ANC's #5, #2, #3, ...

........................................................................
.............................. CYCLE   60 ..............................
........................................................................

 iter      E             dE          RMSdq      gap      omega  full diag
   1   -116.0656225 -0.116066E+03  0.167E-02    1.11       0.0  T
   2   -116.0656226 -0.122093E-06  0.985E-03    1.11       1.0  T
   3   -116.0656220  0.652689E-06  0.272E-03    1.11       3.8  T
   4   -116.0656227 -0.709012E-06  0.460E-04    1.11      22.2  T
   5   -116.0656227 -0.116558E-07  0.200E-04    1.11      50.9  T
     SCC iter.                  ...        0 min,  0.194 sec
     gradient                   ...        0 min,  0.073 sec
 * total energy  :  -114.0926571 Eh     change       -0.2919999E-04 Eh
   gradient norm :     0.0019130 Eh/α   predicted    -0.1918083E-04 ( -34.31%)
   displ. norm   :     0.5976187 α      lambda       -0.6346641E-04
   maximum displ.:     0.3498876 α      in ANC's #5, #2, #3, ...

........................................................................
.............................. CYCLE   61 ..............................
........................................................................

 iter      E             dE          RMSdq      gap      omega  full diag
   1   -116.0622983 -0.116062E+03  0.635E-02    1.11       0.0  T
   2   -116.0622998 -0.149611E-05  0.375E-02    1.11       1.0  T
   3   -116.0622958  0.397889E-05  0.701E-03    1.11       1.5  T
   4   -116.0623002 -0.439510E-05  0.180E-03    1.11       5.7  T
   5   -116.0623004 -0.170665E-06  0.779E-04    1.11      13.1  T
   6   -116.0623004 -0.185722E-08  0.572E-04    1.11      17.8  T
     SCC iter.                  ...        0 min,  0.162 sec
     gradient                   ...        0 min,  0.077 sec
 * total energy  :  -114.0926809 Eh     change       -0.2382267E-04 Eh
   gradient norm :     0.0058272 Eh/α   predicted    -0.3677117E-04 (  54.35%)
   displ. norm   :     0.1029709 α      lambda       -0.7967911E-04
   maximum displ.:     0.0344489 α      in ANC's #18, #5, #42, ...

........................................................................
.............................. CYCLE   62 ..............................
........................................................................

 iter      E             dE          RMSdq      gap      omega  full diag
   1   -116.0651391 -0.116065E+03  0.201E-02    1.12       0.0  T
   2   -116.0651399 -0.872302E-06  0.116E-02    1.12       1.0  T
   3   -116.0651395  0.414705E-06  0.271E-03    1.12       3.8  T
   4   -116.0651398 -0.277575E-06  0.166E-03    1.12       6.2  T
   5   -116.0651400 -0.245138E-06  0.375E-04    1.12      27.2  T
   6   -116.0651400  0.341103E-09  0.294E-04    1.12      34.8  T
     SCC iter.                  ...        0 min,  0.184 sec
     gradient                   ...        0 min,  0.084 sec
 * total energy  :  -114.0927204 Eh     change       -0.3951220E-04 Eh
   gradient norm :     0.0022677 Eh/α   predicted    -0.4026434E-04 (   1.90%)
   displ. norm   :     0.0638334 α      lambda       -0.2803455E-04
   maximum displ.:     0.0327324 α      in ANC's #5, #2, #3, ...

........................................................................
.............................. CYCLE   63 ..............................
........................................................................

 iter      E             dE          RMSdq      gap      omega  full diag
   1   -116.0654141 -0.116065E+03  0.785E-03    1.12       0.0  T
   2   -116.0654141 -0.209117E-07  0.464E-03    1.12       2.2  T
   3   -116.0654140  0.100525E-06  0.111E-03    1.12       9.2  T
   4   -116.0654141 -0.106070E-06  0.290E-04    1.12      35.2  T
   5   -116.0654142 -0.503917E-08  0.116E-04    1.12      88.0  T
     SCC iter.                  ...        0 min,  0.174 sec
     gradient                   ...        0 min,  0.097 sec
 * total energy  :  -114.0927448 Eh     change       -0.2436816E-04 Eh
   gradient norm :     0.0014414 Eh/α   predicted    -0.1407586E-04 ( -42.24%)
   displ. norm   :     0.5701154 α      lambda       -0.9841393E-04
   maximum displ.:     0.3259797 α      in ANC's #5, #2, #3, ...

........................................................................
.............................. CYCLE   64 ..............................
........................................................................

 iter      E             dE          RMSdq      gap      omega  full diag
   1   -116.0655491 -0.116066E+03  0.563E-02    1.12       0.0  T
   2   -116.0655498 -0.688700E-06  0.333E-02    1.12       1.0  T
   3   -116.0655474  0.234312E-05  0.555E-03    1.12       1.8  T
   4   -116.0655500 -0.253559E-05  0.162E-03    1.12       6.3  T
   5   -116.0655501 -0.142076E-06  0.672E-04    1.12      15.2  T
   6   -116.0655501 -0.118609E-07  0.345E-04    1.12      29.6  T
     SCC iter.                  ...        0 min,  0.186 sec
     gradient                   ...        0 min,  0.074 sec
 * total energy  :  -114.0928269 Eh     change       -0.8215616E-04 Eh
   gradient norm :     0.0037533 Eh/α   predicted    -0.5631710E-04 ( -31.45%)
   displ. norm   :     0.2422564 α      lambda       -0.4154593E-04
   maximum displ.:     0.1421555 α      in ANC's #5, #2, #3, ...

........................................................................
.............................. CYCLE   65 ..............................
........................................................................

 iter      E             dE          RMSdq      gap      omega  full diag
   1   -116.0656219 -0.116066E+03  0.210E-02    1.12       0.0  T
   2   -116.0656220 -0.725602E-07  0.124E-02    1.12       1.0  T
   3   -116.0656218  0.188058E-06  0.160E-03    1.12       6.4  T
   4   -116.0656220 -0.218111E-06  0.473E-04    1.12      21.6  T
   5   -116.0656220 -0.755080E-08  0.255E-04    1.12      40.1  T
     SCC iter.                  ...        0 min,  0.166 sec
     gradient                   ...        0 min,  0.071 sec
 * total energy  :  -114.0928631 Eh     change       -0.3619754E-04 Eh
   gradient norm :     0.0035990 Eh/α   predicted    -0.2199350E-04 ( -39.24%)
   displ. norm   :     0.4596663 α      lambda       -0.1032554E-03
   maximum displ.:     0.2613699 α      in ANC's #5, #2, #3, ...

........................................................................
.............................. CYCLE   66 ..............................
........................................................................

 iter      E             dE          RMSdq      gap      omega  full diag
   1   -116.0670095 -0.116067E+03  0.401E-02    1.12       0.0  T
   2   -116.0670098 -0.264016E-06  0.237E-02    1.12       1.0  T
   3   -116.0670051  0.465181E-05  0.736E-03    1.12       1.4  T
   4   -116.0670101 -0.493125E-05  0.117E-03    1.12       8.7  T
   5   -116.0670101 -0.624329E-07  0.576E-04    1.12      17.7  T
   6   -116.0670102 -0.132307E-07  0.256E-04    1.12      39.9  T
     SCC iter.                  ...        0 min,  0.209 sec
     gradient                   ...        0 min,  0.066 sec
 * total energy  :  -114.0929359 Eh     change       -0.7279638E-04 Eh
   gradient norm :     0.0019657 Eh/α   predicted    -0.6253983E-04 ( -14.09%)
   displ. norm   :     0.7955306 α      lambda       -0.6862458E-04
   maximum displ.:     0.4679871 α      in ANC's #5, #2, #3, ...
 * RMSD in coord.:     0.5093774 α      energy gain  -0.7354518E-03 Eh

generating ANC from exact Hessian ...
Using Lindh-Hessian (1995)
 Shifting diagonal of input Hessian by    9.9997044866446411E-003
 Lowest  eigenvalues of input Hessian
    0.000000    0.000000    0.000000    0.000000    0.000000    0.000000
    0.010000    0.010027    0.010037    0.010066    0.010135    0.010180
    0.010249    0.010399    0.010611    0.010732    0.010781    0.010930
 Highest eigenvalues
    1.912965    1.982513    1.996967    2.066627    2.093853    2.127499


........................................................................
.............................. CYCLE   67 ..............................
........................................................................

 iter      E             dE          RMSdq      gap      omega  full diag
   1   -116.0621571 -0.116062E+03  0.728E-02    1.11       0.0  T
   2   -116.0621600 -0.284586E-05  0.429E-02    1.11       1.0  T
   3   -116.0621519  0.814110E-05  0.102E-02    1.11       1.0  T
   4   -116.0621599 -0.806123E-05  0.353E-03    1.11       2.9  T
   5   -116.0621608 -0.919422E-06  0.101E-03    1.11      10.1  T
   6   -116.0621608 -0.944677E-08  0.650E-04    1.11      15.7  T
   7   -116.0621609 -0.179452E-07  0.187E-04    1.11      54.7  T
     SCC iter.                  ...        0 min,  0.215 sec
     gradient                   ...        0 min,  0.087 sec
 * total energy  :  -114.0929231 Eh     change        0.1281507E-04 Eh
   gradient norm :     0.0088595 Eh/α   predicted     0.0000000E+00 (-100.00%)
   displ. norm   :     0.0402913 α      lambda       -0.1892624E-03
   maximum displ.:     0.0148039 α      in ANC's #32, #20, #40, ...

........................................................................
.............................. CYCLE   68 ..............................
........................................................................

 iter      E             dE          RMSdq      gap      omega  full diag
   1   -116.0662723 -0.116066E+03  0.145E-02    1.11       0.0  T
   2   -116.0662741 -0.175292E-05  0.803E-03    1.11       1.3  T
   3   -116.0662735  0.576898E-06  0.395E-03    1.11       2.6  T
   4   -116.0662738 -0.329555E-06  0.255E-03    1.11       4.0  T
   5   -116.0662743 -0.465956E-06  0.497E-04    1.11      20.5  T
   6   -116.0662743  0.610449E-08  0.424E-04    1.11      24.1  T
     SCC iter.                  ...        0 min,  0.201 sec
     gradient                   ...        0 min,  0.095 sec
 * total energy  :  -114.0930413 Eh     change       -0.1181455E-03 Eh
   gradient norm :     0.0021239 Eh/α   predicted    -0.9595338E-04 ( -18.78%)
   displ. norm   :     0.0412062 α      lambda       -0.3095811E-04
   maximum displ.:     0.0183522 α      in ANC's #32, #20, #40, ...

........................................................................
.............................. CYCLE   69 ..............................
........................................................................

 iter      E             dE          RMSdq      gap      omega  full diag
   1   -116.0675958 -0.116068E+03  0.621E-03    1.11       0.0  T
   2   -116.0675960 -0.145297E-06  0.358E-03    1.11       2.9  T
   3   -116.0675957  0.247967E-06  0.196E-03    1.11       5.2  T
   4   -116.0675960 -0.241350E-06  0.803E-04    1.11      12.7  T
   5   -116.0675960 -0.405750E-07  0.193E-04    1.11      52.8  T
     SCC iter.                  ...        0 min,  0.176 sec
     gradient                   ...        0 min,  0.106 sec
 * total energy  :  -114.0930643 Eh     change       -0.2307885E-04 Eh
   gradient norm :     0.0008193 Eh/α   predicted    -0.1561230E-04 ( -32.35%)
   displ. norm   :     0.1327186 α      lambda       -0.3837412E-04
   maximum displ.:     0.0613423 α      in ANC's #32, #40, #20, ...

........................................................................
.............................. CYCLE   70 ..............................
........................................................................

 iter      E             dE          RMSdq      gap      omega  full diag
   1   -116.0688077 -0.116069E+03  0.162E-02    1.11       0.0  T
   2   -116.0688079 -0.141183E-06  0.966E-03    1.11       1.1  T
   3   -116.0688067  0.123739E-05  0.360E-03    1.11       2.8  T
   4   -116.0688080 -0.132047E-05  0.583E-04    1.11      17.5  T
   5   -116.0688080 -0.199410E-07  0.322E-04    1.11      31.7  T
   6   -116.0688080 -0.619244E-08  0.144E-04    1.11      70.6  T
     SCC iter.                  ...        0 min,  0.236 sec
     gradient                   ...        0 min,  0.078 sec
 * total energy  :  -114.0931069 Eh     change       -0.4254213E-04 Eh
   gradient norm :     0.0029971 Eh/α   predicted    -0.1933865E-04 ( -54.54%)
   displ. norm   :     0.1935247 α      lambda       -0.6889503E-04
   maximum displ.:     0.0939065 α      in ANC's #32, #40, #20, ...

........................................................................
.............................. CYCLE   71 ..............................
........................................................................

 iter      E             dE          RMSdq      gap      omega  full diag
   1   -116.0680546 -0.116068E+03  0.224E-02    1.11       0.0  T
   2   -116.0680548 -0.174747E-06  0.134E-02    1.11       1.0  T
   3   -116.0680529  0.195246E-05  0.495E-03    1.11       2.1  T
   4   -116.0680549 -0.205992E-05  0.956E-04    1.11      10.7  T
   5   -116.0680550 -0.517367E-07  0.452E-04    1.11      22.6  T
   6   -116.0680550 -0.124854E-07  0.189E-04    1.11      53.9  T
     SCC iter.                  ...        0 min,  0.179 sec
     gradient                   ...        0 min,  0.070 sec
 * total energy  :  -114.0931649 Eh     change       -0.5800384E-04 Eh
   gradient norm :     0.0025047 Eh/α   predicted    -0.3577971E-04 ( -38.31%)
   displ. norm   :     0.3605212 α      lambda       -0.9534855E-04
   maximum displ.:     0.1786571 α      in ANC's #32, #40, #20, ...

........................................................................
.............................. CYCLE   72 ..............................
........................................................................

 iter      E             dE          RMSdq      gap      omega  full diag
   1   -116.0640863 -0.116064E+03  0.422E-02    1.11       0.0  T
   2   -116.0640888 -0.245605E-05  0.251E-02    1.11       1.0  T
   3   -116.0640829  0.589000E-05  0.939E-03    1.11       1.1  T
   4   -116.0640887 -0.584207E-05  0.331E-03    1.11       3.1  T
   5   -116.0640894 -0.680932E-06  0.109E-03    1.11       9.4  T
   6   -116.0640895 -0.673458E-07  0.577E-04    1.11      17.7  T
   7   -116.0640895 -0.873607E-08  0.196E-04    1.11      52.2  T
     SCC iter.                  ...        0 min,  0.229 sec
     gradient                   ...        0 min,  0.070 sec
 * total energy  :  -114.0931465 Eh     change        0.1836053E-04 Eh
   gradient norm :     0.0070689 Eh/α   predicted    -0.5387977E-04 (-393.45%)
   displ. norm   :     0.2078712 α      lambda       -0.1546927E-03
   maximum displ.:     0.1045773 α      in ANC's #32, #40, #20, ...

........................................................................
.............................. CYCLE   73 ..............................
........................................................................

 iter      E             dE          RMSdq      gap      omega  full diag
   1   -116.0668280 -0.116067E+03  0.266E-02    1.11       0.0  T
   2   -116.0668295 -0.156833E-05  0.156E-02    1.11       1.0  T
   3   -116.0668284  0.117489E-05  0.457E-03    1.11       2.2  T
   4   -116.0668295 -0.117175E-05  0.193E-03    1.11       5.3  T
   5   -116.0668298 -0.256084E-06  0.538E-04    1.11      19.0  T
   6   -116.0668298  0.377642E-08  0.502E-04    1.11      20.3  T
     SCC iter.                  ...        0 min,  0.176 sec
     gradient                   ...        0 min,  0.101 sec
 * total energy  :  -114.0932037 Eh     change       -0.5717303E-04 Eh
   gradient norm :     0.0013096 Eh/α   predicted    -0.8068953E-04 (  41.13%)
   displ. norm   :     0.0707501 α      lambda       -0.1181721E-04
   maximum displ.:     0.0356024 α      in ANC's #32, #48, #40, ...

........................................................................
.............................. CYCLE   74 ..............................
........................................................................

 iter      E             dE          RMSdq      gap      omega  full diag
   1   -116.0664759 -0.116066E+03  0.794E-03    1.11       0.0  T
   2   -116.0664759 -0.183548E-07  0.478E-03    1.11       2.1  T
   3   -116.0664755  0.420337E-06  0.229E-03    1.11       4.4  T
   4   -116.0664760 -0.443788E-06  0.292E-04    1.11      34.9  T
   5   -116.0664760 -0.384641E-08  0.145E-04    1.11      70.5  T
     SCC iter.                  ...        0 min,  0.156 sec
     gradient                   ...        0 min,  0.180 sec
 * total energy  :  -114.0932193 Eh     change       -0.1556219E-04 Eh
   gradient norm :     0.0012661 Eh/α   predicted    -0.6111497E-05 ( -60.73%)
   displ. norm   :     0.1990035 α      lambda       -0.3189147E-04
   maximum displ.:     0.1033452 α      in ANC's #32, #48, #2, ...

........................................................................
.............................. CYCLE   75 ..............................
........................................................................

 iter      E             dE          RMSdq      gap      omega  full diag
   1   -116.0656450 -0.116066E+03  0.227E-02    1.10       0.0  T
   2   -116.0656453 -0.282270E-06  0.136E-02    1.10       1.0  T
   3   -116.0656433  0.198883E-05  0.507E-03    1.10       2.0  T
   4   -116.0656454 -0.207129E-05  0.106E-03    1.10       9.6  T
   5   -116.0656455 -0.632466E-07  0.417E-04    1.10      24.5  T
   6   -116.0656455 -0.760591E-08  0.243E-04    1.10      42.0  T
     SCC iter.                  ...        0 min,  0.203 sec
     gradient                   ...        0 min,  0.088 sec
 * total energy  :  -114.0932430 Eh     change       -0.2376105E-04 Eh
   gradient norm :     0.0038498 Eh/α   predicted    -0.1623289E-04 ( -31.68%)
   displ. norm   :     0.0296649 α      lambda       -0.1651093E-04
   maximum displ.:     0.0129869 α      in ANC's #17, #40, #20, ...

........................................................................
.............................. CYCLE   76 ..............................
........................................................................

 iter      E             dE          RMSdq      gap      omega  full diag
   1   -116.0661801 -0.116066E+03  0.494E-03    1.10       0.0  T
   2   -116.0661802 -0.678888E-07  0.287E-03    1.10       3.6  T
   3   -116.0661801  0.700369E-07  0.102E-03    1.10      10.0  T
   4   -116.0661802 -0.566509E-07  0.535E-04    1.10      19.1  T
   5   -116.0661802 -0.238402E-07  0.152E-04    1.10      67.2  T
     SCC iter.                  ...        0 min,  0.167 sec
     gradient                   ...        0 min,  0.073 sec
 * total energy  :  -114.0932563 Eh     change       -0.1324327E-04 Eh
   gradient norm :     0.0028042 Eh/α   predicted    -0.8265901E-05 ( -37.58%)
   displ. norm   :     0.0977813 α      lambda       -0.3212021E-04
   maximum displ.:     0.0375134 α      in ANC's #17, #32, #2, ...

........................................................................
.............................. CYCLE   77 ..............................
........................................................................

 iter      E             dE          RMSdq      gap      omega  full diag
   1   -116.0669726 -0.116067E+03  0.126E-02    1.10       0.0  T
   2   -116.0669727 -0.121078E-06  0.744E-03    1.10       1.4  T
   3   -116.0669723  0.339492E-06  0.198E-03    1.10       5.2  T
   4   -116.0669727 -0.337294E-06  0.687E-04    1.10      14.9  T
   5   -116.0669727 -0.368544E-07  0.194E-04    1.10      52.5  T
     SCC iter.                  ...        0 min,  0.169 sec
     gradient                   ...        0 min,  0.069 sec
 * total energy  :  -114.0932794 Eh     change       -0.2307759E-04 Eh
   gradient norm :     0.0017821 Eh/α   predicted    -0.1621452E-04 ( -29.74%)
   displ. norm   :     0.2153590 α      lambda       -0.2811734E-04
   maximum displ.:     0.1031487 α      in ANC's #32, #2, #17, ...

........................................................................
.............................. CYCLE   78 ..............................
........................................................................

 iter      E             dE          RMSdq      gap      omega  full diag
   1   -116.0669701 -0.116067E+03  0.244E-02    1.10       0.0  T
   2   -116.0669702 -0.858173E-07  0.146E-02    1.10       1.0  T
   3   -116.0669688  0.144774E-05  0.391E-03    1.10       2.6  T
   4   -116.0669703 -0.154785E-05  0.556E-04    1.10      18.4  T
   5   -116.0669703 -0.912924E-08  0.311E-04    1.10      32.8  T
   6   -116.0669703 -0.186981E-08  0.180E-04    1.10      56.8  T
     SCC iter.                  ...        0 min,  0.199 sec
     gradient                   ...        0 min,  0.087 sec
 * total energy  :  -114.0933051 Eh     change       -0.2574690E-04 Eh
   gradient norm :     0.0016697 Eh/α   predicted    -0.1434591E-04 ( -44.28%)
   displ. norm   :     0.0715645 α      lambda       -0.1212117E-04
   maximum displ.:     0.0313585 α      in ANC's #2, #32, #11, ...

........................................................................
.............................. CYCLE   79 ..............................
........................................................................

 iter      E             dE          RMSdq      gap      omega  full diag
   1   -116.0672094 -0.116067E+03  0.898E-03    1.10       0.0  T
   2   -116.0672094 -0.567833E-08  0.537E-03    1.10       1.9  T
   3   -116.0672083  0.107898E-05  0.366E-03    1.10       2.8  T
   4   -116.0672095 -0.114606E-05  0.327E-04    1.10      31.2  T
   5   -116.0672095 -0.395723E-08  0.182E-04    1.10      56.2  T
   6   -116.0672095 -0.211003E-08  0.920E-05    1.10     110.9  T
     SCC iter.                  ...        0 min,  0.219 sec
     gradient                   ...        0 min,  0.078 sec
 * total energy  :  -114.0933177 Eh     change       -0.1261202E-04 Eh
   gradient norm :     0.0007856 Eh/α   predicted    -0.6117133E-05 ( -51.50%)
   displ. norm   :     0.1326210 α      lambda       -0.1301017E-04
   maximum displ.:     0.0670744 α      in ANC's #32, #2, #48, ...

........................................................................
.............................. CYCLE   80 ..............................
........................................................................

 iter      E             dE          RMSdq      gap      omega  full diag
   1   -116.0664794 -0.116066E+03  0.158E-02    1.10       0.0  T
   2   -116.0664795 -0.117915E-06  0.942E-03    1.10       1.1  T
   3   -116.0664791  0.401369E-06  0.224E-03    1.10       4.6  T
   4   -116.0664795 -0.401641E-06  0.718E-04    1.10      14.2  T
   5   -116.0664796 -0.366918E-07  0.231E-04    1.10      44.2  T
     SCC iter.                  ...        0 min,  0.177 sec
     gradient                   ...        0 min,  0.089 sec
 * total energy  :  -114.0933268 Eh     change       -0.9039832E-05 Eh
   gradient norm :     0.0022450 Eh/α   predicted    -0.6561442E-05 ( -27.42%)
   displ. norm   :     0.0410296 α      lambda       -0.1269726E-04
   maximum displ.:     0.0183508 α      in ANC's #17, #18, #24, ...

........................................................................
.............................. CYCLE   81 ..............................
........................................................................

 iter      E             dE          RMSdq      gap      omega  full diag
   1   -116.0668716 -0.116067E+03  0.823E-03    1.10       0.0  T
   2   -116.0668717 -0.865599E-07  0.480E-03    1.10       2.1  T
   3   -116.0668716  0.549993E-07  0.916E-04    1.10      11.1  T
   4   -116.0668717 -0.557928E-07  0.407E-04    1.10      25.1  T
     SCC iter.                  ...        0 min,  0.130 sec
     gradient                   ...        0 min,  0.095 sec
 * total energy  :  -114.0933342 Eh     change       -0.7482457E-05 Eh
   gradient norm :     0.0013256 Eh/α   predicted    -0.6362078E-05 ( -14.97%)
   displ. norm   :     0.0521312 α      lambda       -0.5135099E-05
   maximum displ.:     0.0305319 α      in ANC's #2, #32, #17, ...

........................................................................
.............................. CYCLE   82 ..............................
........................................................................

 iter      E             dE          RMSdq      gap      omega  full diag
   1   -116.0668074 -0.116067E+03  0.730E-03    1.10       0.0  T
   2   -116.0668074  0.159901E-08  0.438E-03    1.10       2.3  T
   3   -116.0668069  0.588372E-06  0.255E-03    1.10       4.0  T
   4   -116.0668075 -0.622791E-06  0.193E-04    1.10      52.9  T
   5   -116.0668075 -0.165579E-08  0.113E-04    1.10      90.1  T
     SCC iter.                  ...        0 min,  0.192 sec
     gradient                   ...        0 min,  0.086 sec
 * total energy  :  -114.0933396 Eh     change       -0.5321072E-05 Eh
   gradient norm :     0.0008013 Eh/α   predicted    -0.2570544E-05 ( -51.69%)
   displ. norm   :     0.0775047 α      lambda       -0.5133486E-05
   maximum displ.:     0.0472018 α      in ANC's #2, #32, #48, ...

........................................................................
.............................. CYCLE   83 ..............................
........................................................................

 iter      E             dE          RMSdq      gap      omega  full diag
   1   -116.0666558 -0.116067E+03  0.886E-03    1.10       0.0  T
   2   -116.0666558  0.122600E-08  0.533E-03    1.10       1.9  T
   3   -116.0666551  0.699931E-06  0.283E-03    1.10       3.6  T
   4   -116.0666558 -0.738575E-06  0.231E-04    1.10      44.2  T
   5   -116.0666558 -0.191375E-08  0.139E-04    1.10      73.6  T
     SCC iter.                  ...        0 min,  0.167 sec
     gradient                   ...        0 min,  0.084 sec
 * total energy  :  -114.0933444 Eh     change       -0.4877107E-05 Eh
   gradient norm :     0.0006465 Eh/α   predicted    -0.2574523E-05 ( -47.21%)
   displ. norm   :     0.0473587 α      lambda       -0.2172605E-05
   maximum displ.:     0.0326241 α      in ANC's #2, #32, #48, ...

   *** GEOMETRY OPTIMIZATION CONVERGED AFTER 83 ITERATIONS ***

------------------------------------------------------------------------
 total energy gain   :        -0.0245435 Eh      -15.4013 kcal/mol
 total RMSD          :         1.4544333 a0        0.7697 Å
 total power (kW/mol):        -0.7763743 (step)   -2.4895 (real)
------------------------------------------------------------------------

 ANCopt (total)                0 d,  0 h,  0 min, 25.885 sec
 optimizer setup                ...        0 min,  0.002 sec (  0.008%)
 model hessian                  ...        0 min,  0.186 sec (  0.717%)
 ANC generation                 ...        0 min,  0.154 sec (  0.594%)
 coordinate transformation      ...        0 min,  0.035 sec (  0.135%)
 single point calculation       ...        0 min, 25.271 sec ( 97.630%)
 optimization log               ...        0 min,  0.025 sec (  0.098%)
 hessian update                 ...        0 min,  0.021 sec (  0.083%)
 rational function              ...        0 min,  0.097 sec (  0.376%)

================
 final structure:
================
96
 xtb: 6.7.1 (unknown)
C            0.97025312774123       -1.29649864812195       -2.15271555183420
C            0.05859366058867       -0.58328581399450       -1.19637819832385
C           -0.62195497286316       -1.19106575934374       -0.21340324688742
C           -1.63937133143660       -0.46512394181451        0.66157211640170
C           -1.90686273637367        0.95959263440599        0.15411029643668
C           -0.63480767583659        1.65281866820474       -0.30657858040629
C           -0.07068074421079        0.88506166339728       -1.49168800933113
C           -2.98390404508872       -1.20919673619016        0.66944942627199
C           -1.09064588864809       -0.42267148777063        2.09464310279659
C           -0.42485230919288       -2.59727766917015        0.11763020419420
C            0.77966200453029       -3.18238328710168        0.25592108656569
C            1.04630243230384       -4.55758734897485        0.58387153352094
C            0.07952432688072       -5.51780496208665        0.59175674636975
C            0.28064449864095       -6.88935087316009        0.88360145725852
C           -0.72930840331975       -7.80134791955050        0.87393281185583
C           -0.64116550316277       -9.20051307796426        1.13333751441304
C            0.54447499117129       -9.83596335806216        1.38835568183999
C            0.71215071220137      -11.21437304688732        1.63943855073679
C            1.92976094879909      -11.78556245237270        1.86874264801636
C            2.10477068316695      -13.16413597597885        2.11631415209955
C            3.27312660668510      -13.83752385509404        2.35115323739022
C            4.61473979246465      -13.16567671393417        2.38009701072545
C            3.22035585403166      -15.24453304642085        2.58011311860328
C            4.27915408700542      -16.05898219300992        2.82904662516194
C            4.13731518309322      -17.45305155524708        3.05070824733494
C            5.11710675572457      -18.36363422071475        3.30640351133620
C            6.57324750788579      -18.01219070014193        3.38599283658318
C            4.74370897318619      -19.73767811558061        3.51522097419843
C            5.57776774496045      -20.74257002779947        3.83742998877339
C            5.16163847432408      -22.12218100614638        4.06768946556770
C            4.33011644880631      -22.77083703609878        3.24050324740196
C            3.82546013113223      -24.16020148234036        3.51524029128691
C            3.94832897459905      -24.52394405734889        4.98650881421194
C            5.37422566917069      -24.24420641344170        5.43314156364892
C            5.72966801470493      -22.75324356657822        5.33553618208282
C            7.26257859433456      -22.64491651484956        5.36054455013479
C            5.16207673102327      -21.99453779070256        6.54331952063450
C            3.85776664713464      -22.22310990007682        1.92479788538391
C           -1.92753654219012       -9.98046827822504        1.10304426606694
C            2.47602574095815       -4.90277375625419        0.90104438336808
H            0.80722160409751       -2.37047885313621       -2.14334729471034
H            2.01485581149507       -1.10305720793437       -1.90613354961410
H            0.79994629131159       -0.92100173249669       -3.16199404668451
H           -2.38865458926415        1.53524096672894        0.94733959852768
H           -2.59846809746149        0.91197531400866       -0.69065558756390
H            0.09727117873569        1.67244013862367        0.50226404857910
H           -0.84817148119818        2.68535790326903       -0.59094732176449
H            0.91192361235643        1.27768907520434       -1.76794952862220
H           -0.72456224966288        1.01952462263656       -2.36097439940920
H           -3.29364102477188       -1.45095731265431       -0.34540820090264
H           -3.74635912744634       -0.57598571882037        1.11948020512939
H           -2.93192716751032       -2.12640891526371        1.24951745897091
H           -0.16360545405636        0.14391306801531        2.13676969186157
H           -0.88477840607625       -1.43014262053067        2.45006849450544
H           -1.81216077840231        0.04189698946497        2.76404339556989
H           -1.31728857307137       -3.17187228586648        0.31611869833534
H            1.65552471337247       -2.55635064289068        0.14476462088646
H           -0.93438753647272       -5.23466100197951        0.34188224167678
H            1.28455225553065       -7.20669966037795        1.11959983032492
H           -1.72125385808442       -7.42827160735251        0.64386699381378
H            1.45227485186826       -9.24799200193262        1.39558532678921
H           -0.16264199132803      -11.84965482230694        1.64729224571355
H            2.79771456622459      -11.14032937125334        1.85627628348604
H            1.19314290298994      -13.75172704296090        2.11720490550845
H            4.53762006150412      -12.09994693197797        2.19559110561336
H            5.26629181003783      -13.59724690329964        1.62048439438506
H            5.08532316607402      -13.31065975621017        3.35235199418033
H            2.23405432754447      -15.69313711599654        2.55073064510248
H            5.27076832521273      -15.63475299414336        2.86461950782224
H            3.11873315421681      -17.82335665629950        3.01222494726064
H            6.75304439817625      -16.97079451922438        3.14261363471023
H            7.14579630351584      -18.62846935147181        2.69361413106255
H            6.94915990069645      -18.19681651230575        4.39260076182184
H            3.68670183751838      -19.95186212759731        3.42851883771240
H            6.62416449912348      -20.52970400654117        3.99700729243012
H            4.39578714176694      -24.87544338053010        2.91150820959835
H            2.78338011472329      -24.22806675824939        3.19090161770203
H            3.70376947877809      -25.57736311619116        5.13865450268567
H            3.24663306890026      -23.92872576932844        5.57298857499139
H            6.05325959597538      -24.81428623528750        4.79422366523700
H            5.52442542214366      -24.57922862132209        6.46175836816163
H            7.68559544076738      -22.97518336270766        4.41384915086566
H            7.65823274512006      -23.27802533553423        6.15268513921111
H            7.59081808483332      -21.62783343249229        5.55639338907524
H            4.08135733523793      -22.10154798619565        6.59359752789590
H            5.39002927908105      -20.93360380425912        6.46518292846701
H            5.59230276678671      -22.37579108864585        7.46754467584264
H            4.46293400078724      -21.38397036849505        1.59387581534491
H            2.82059929149982      -21.89390111289381        1.99459593586825
H            3.89961836031671      -23.00944021956461        1.17073386441152
H           -1.89919774234825      -10.73776137595029        0.31925121642646
H           -2.77525602469385       -9.32642984509598        0.91346788072084
H           -2.09321476387795      -10.48637254089913        2.05383933004963
H            3.10665924899002       -4.01807929224655        0.86224739322628
H            2.86468353648385       -5.63029609451285        0.18863641440472
H            2.55524321655481       -5.33303104243247        1.89875357538968

 Bond Distances (Angstroems)
 ---------------------------
C1-C2=1.5015         C1-H41=1.0863        C1-H42=1.0906        C1-H43=1.0903        C2-C1=1.5015         C2-C3=1.3412         
C2-C7=1.5033         C3-C2=1.3412         C3-C4=1.5257         C3-C10=1.4580        C4-C3=1.5257         C4-C5=1.5359         
C4-C8=1.5367         C4-C9=1.5351         C5-C4=1.5359         C5-C6=1.5202         C5-H44=1.0921        C5-H45=1.0928        
C6-C5=1.5202         C6-C7=1.5206         C6-H46=1.0911        C6-H47=1.0920        C7-C2=1.5033         C7-C6=1.5206         
C7-H48=1.0936        C7-H49=1.0960        C8-C4=1.5367         C8-H50=1.0883        C8-H51=1.0885        C8-H52=1.0865        
C9-C4=1.5351         C9-H53=1.0873        C9-H54=1.0880        C9-H55=1.0883        C10-C3=1.4580        C10-C11=1.3462       
C10-H56=1.0798       C11-C10=1.3462       C11-C12=1.4387       C11-H57=1.0823       C12-C11=1.4387       C12-C13=1.3626       
C12-C40=1.5046       C13-C12=1.3626       C13-C14=1.4166       C13-H58=1.0820       C14-C13=1.4166       C14-C15=1.3608       
C14-H59=1.0790       C15-C14=1.3608       C15-C16=1.4257       C15-H60=1.0845       C16-C15=1.4257       C16-C17=1.3692       
C16-C39=1.5047       C17-C16=1.3692       C17-C18=1.4111       C17-H61=1.0816       C18-C17=1.4111       C18-C19=1.3643       
C18-H62=1.0812       C19-C18=1.3643       C19-C20=1.4115       C19-H63=1.0816       C20-C19=1.4115       C20-C21=1.3688       
C20-H64=1.0846       C21-C20=1.3688       C21-C22=1.5007       C21-C23=1.4265       C22-C21=1.5007       C22-H65=1.0843       
C22-H66=1.0899       C22-H67=1.0898       C23-C21=1.4265       C23-C24=1.3588       C23-H68=1.0839       C24-C23=1.3588       
C24-C25=1.4187       C24-H69=1.0791       C25-C24=1.4187       C25-C26=1.3618       C25-H70=1.0845       C26-C25=1.3618       
C26-C27=1.5001       C26-C28=1.4391       C27-C26=1.5001       C27-H71=1.0845       C27-H72=1.0895       C27-H73=1.0903       
C28-C26=1.4391       C28-C29=1.3451       C28-H74=1.0820       C29-C28=1.3451       C29-C30=1.4593       C29-H75=1.0797       
C30-C29=1.4593       C30-C31=1.3403       C30-C35=1.5259       C31-C30=1.3403       C31-C32=1.5035       C31-C38=1.5014       
C32-C31=1.5035       C32-C33=1.5205       C32-H76=1.0961       C32-H77=1.0935       C33-C32=1.5205       C33-C34=1.5202       
C33-H78=1.0921       C33-H79=1.0912       C34-C33=1.5202       C34-C35=1.5359       C34-H80=1.0928       C34-H81=1.0922       
C35-C30=1.5259       C35-C34=1.5359       C35-C36=1.5369       C35-C37=1.5351       C36-C35=1.5369       C36-H82=1.0882       
C36-H83=1.0885       C36-H84=1.0865       C37-C35=1.5351       C37-H85=1.0872       C37-H86=1.0880       C37-H87=1.0884       
C38-C31=1.5014       C38-H88=1.0862       C38-H89=1.0904       C38-H90=1.0903       C39-C16=1.5047       C39-H91=1.0902       
C39-H92=1.0874       C39-H93=1.0897       C40-C12=1.5046       C40-H94=1.0871       C40-H95=1.0899       C40-H96=1.0894       
H41-C1=1.0863        H42-C1=1.0906        H43-C1=1.0903        H44-C5=1.0921        H45-C5=1.0928        H46-C6=1.0911        
H47-C6=1.0920        H48-C7=1.0936        H49-C7=1.0960        H50-C8=1.0883        H51-C8=1.0885        H52-C8=1.0865        
H53-C9=1.0873        H54-C9=1.0880        H55-C9=1.0883        H56-C10=1.0798       H57-C11=1.0823       H58-C13=1.0820       
H59-C14=1.0790       H60-C15=1.0845       H61-C17=1.0816       H62-C18=1.0812       H63-C19=1.0816       H64-C20=1.0846       
H65-C22=1.0843       H66-C22=1.0899       H67-C22=1.0898       H68-C23=1.0839       H69-C24=1.0791       H70-C25=1.0845       
H71-C27=1.0845       H72-C27=1.0895       H73-C27=1.0903       H74-C28=1.0820       H75-C29=1.0797       H76-C32=1.0961       
H77-C32=1.0935       H78-C33=1.0921       H79-C33=1.0912       H80-C34=1.0928       H81-C34=1.0922       H82-C36=1.0882       
H83-C36=1.0885       H84-C36=1.0865       H85-C37=1.0872       H86-C37=1.0880       H87-C37=1.0884       H88-C38=1.0862       
H89-C38=1.0904       H90-C38=1.0903       H91-C39=1.0902       H92-C39=1.0874       H93-C39=1.0897       H94-C40=1.0871       
H95-C40=1.0899       H96-C40=1.0894       
 C  H  Rav=1.0877 sigma=0.0042  Rmin=1.0790  Rmax=1.0961    56
 C  C  Rav=1.4535 sigma=0.0701  Rmin=1.3403  Rmax=1.5369    41

 selected bond angles (degree)
 --------------------
H41-C1-C2=111.90               H42-C1-C2=110.69               H42-C1-H41=108.49              H43-C1-C2=109.34               
H43-C1-H41=108.97              H43-C1-H42=107.33              C3-C2-C1=124.03                C7-C2-C1=113.02                
C7-C2-C3=122.89                C4-C3-C2=122.89                C10-C3-C2=122.33               C10-C3-C4=114.76               
C5-C4-C3=111.59                C8-C4-C3=110.86                C8-C4-C5=107.37                C9-C4-C3=108.07                
C9-C4-C5=110.18                C9-C4-C8=108.74                C6-C5-C4=112.17                H44-C5-C4=109.01               
H44-C5-C6=110.42               H45-C5-C4=108.98               H45-C5-C6=108.37               H45-C5-H44=107.77              
C7-C6-C5=108.44                H46-C6-C5=110.18               H46-C6-C7=109.75               H47-C6-C5=110.28               
H47-C6-C7=110.30               H47-C6-H46=107.89              C6-C7-C2=111.84                H48-C7-C2=108.85               
H48-C7-C6=110.42               H49-C7-C2=109.08               H49-C7-C6=109.56               H49-C7-H48=106.96              
H50-C8-C4=110.60               H51-C8-C4=109.47               H51-C8-H50=108.39              H52-C8-C4=111.69               
H52-C8-H50=108.90              H52-C8-H51=107.69              H53-C9-C4=110.81               H54-C9-C4=110.30               
H54-C9-H53=107.97              H55-C9-C4=110.43               H55-C9-H53=108.60              H55-C9-H54=108.65              
C11-C10-C3=124.30              H56-C10-C3=116.31              H56-C10-C11=119.30             

 selected dihedral angles (degree)
 ---------------------------------
C3-C2-C1-H41= 15.97           C3-C2-C1-H42=254.82           C3-C2-C1-H43=136.79           C7-C2-C1-H41=198.76           
C7-C2-C1-H42= 77.62           C7-C2-C1-H43=319.59           C4-C3-C2-C1=185.83            C4-C3-C2-C7=  2.77            
C10-C3-C2-C1=  7.04           C10-C3-C2-C7=183.98           C5-C4-C3-C2=  7.52            C5-C4-C3-C10=186.39           
C8-C4-C3-C2=127.14            C8-C4-C3-C10=306.02           C9-C4-C3-C2=246.22            C9-C4-C3-C10= 65.10           
C6-C5-C4-C3=319.40            C6-C5-C4-C8=197.73            C6-C5-C4-C9= 79.46            H44-C5-C4-C3=196.78           
H44-C5-C4-C8= 75.12           H44-C5-C4-C9=316.84           H45-C5-C4-C3= 79.40           H45-C5-C4-C8=317.74           
H45-C5-C4-C9=199.46           C7-C6-C5-C4= 63.29            C7-C6-C5-H44=185.10           C7-C6-C5-H45=302.93           
H46-C6-C5-C4=303.15           H46-C6-C5-H44= 64.96          H46-C6-C5-H45=182.79          H47-C6-C5-C4=184.16           
H47-C6-C5-H44=305.97          H47-C6-C5-H45= 63.80          C6-C7-C2-C1=197.21            C6-C7-C2-C3= 19.97            
H48-C7-C2-C1=319.49           H48-C7-C2-C3=142.25           H49-C7-C2-C1= 75.86           H49-C7-C2-C3=258.62           
C2-C7-C6-C5=308.71            C2-C7-C6-H46= 69.12           C2-C7-C6-H47=187.85           H48-C7-C6-C5=187.34           
H48-C7-C6-H46=307.75          H48-C7-C6-H47= 66.48          H49-C7-C6-C5= 69.79           H49-C7-C6-H46=190.19          
H49-C7-C6-H47=308.93          H50-C8-C4-C3=311.18           H50-C8-C4-C5= 73.31           H50-C8-C4-C9=192.51           
H51-C8-C4-C3=191.82           H51-C8-C4-C5=313.95           H51-C8-C4-C9= 73.15           H52-C8-C4-C3= 72.65           
H52-C8-C4-C5=194.77           H52-C8-C4-C9=313.97           H53-C9-C4-C3= 62.62           H53-C9-C4-C5=300.46           
H53-C9-C4-C8=183.03           H54-C9-C4-C3=303.11           H54-C9-C4-C5=180.94           H54-C9-C4-C8= 63.52           
H55-C9-C4-C3=183.00           H55-C9-C4-C5= 60.84           H55-C9-C4-C8=303.41           C11-C10-C3-C2= 46.20          
C11-C10-C3-C4=227.32          H56-C10-C3-C2=222.53          H56-C10-C3-C4= 43.65          
           -------------------------------------------------
          |                Final Singlepoint                |
           -------------------------------------------------

          ...................................................
          :                      SETUP                      :
          :.................................................:
          :  # basis functions                 216          :
          :  # atomic orbitals                 216          :
          :  # shells                          136          :
          :  # electrons                       216          :
          :  max. iterations                   250          :
          :  Hamiltonian                  GFN2-xTB          :
          :  restarted?                      false          :
          :  GBSA solvation                  false          :
          :  PC potential                    false          :
          :  electronic temp.          300.0000000     K    :
          :  accuracy                    1.0000000          :
          :  -> integral cutoff          0.2500000E+02      :
          :  -> integral neglect         0.1000000E-07      :
          :  -> SCF convergence          0.1000000E-05 Eh   :
          :  -> wf. convergence          0.1000000E-03 e    :
          :  Broyden damping             0.4000000          :
          :  net charge                          0          :
          :  unpaired electrons                  0          :
          ...................................................

 iter      E             dE          RMSdq      gap      omega  full diag
   1   -116.0666558 -0.116067E+03  0.757E-05    1.10       0.0  T
   2   -116.0666558  0.303203E-09  0.855E-05    1.10     119.3  T
   3   -116.0666558 -0.596089E-09  0.275E-05    1.10     371.5  T

   *** convergence criteria satisfied after 3 iterations ***

         #    Occupation            Energy/Eh            Energy/eV
      -------------------------------------------------------------
         1        2.0000           -0.6354031             -17.2902
       ...           ...                  ...                  ...
       102        2.0000           -0.3975061             -10.8167
       103        2.0000           -0.3956157             -10.7652
       104        2.0000           -0.3820684             -10.3966
       105        2.0000           -0.3724182             -10.1340
       106        2.0000           -0.3611286              -9.8268
       107        2.0000           -0.3464260              -9.4267
       108        2.0000           -0.3249665              -8.8428 (HOMO)
       109                         -0.2845517              -7.7430 (LUMO)
       110                         -0.2579111              -7.0181
       111                         -0.2309801              -6.2853
       112                         -0.2055481              -5.5932
       113                         -0.1857556              -5.0547
       ...                                ...                  ...
       216                          0.7109561              19.3461
      -------------------------------------------------------------
                  HL-Gap            0.0404148 Eh            1.0997 eV
             Fermi-level           -0.3047591 Eh           -8.2929 eV

 SCC (total)                   0 d,  0 h,  0 min,  0.207 sec
 SCC setup                      ...        0 min,  0.001 sec (  0.613%)
 Dispersion                     ...        0 min,  0.002 sec (  1.104%)
 classical contributions        ...        0 min,  0.001 sec (  0.295%)
 integral evaluation            ...        0 min,  0.024 sec ( 11.704%)
 iterations                     ...        0 min,  0.097 sec ( 46.855%)
 molecular gradient             ...        0 min,  0.078 sec ( 37.628%)
 printout                       ...        0 min,  0.004 sec (  1.789%)

         :::::::::::::::::::::::::::::::::::::::::::::::::::::
         ::                     SUMMARY                     ::
         :::::::::::::::::::::::::::::::::::::::::::::::::::::
         :: total energy            -114.093344432725 Eh    ::
         :: gradient norm              0.000646008802 Eh/a0 ::
         :: HOMO-LUMO gap              1.099742946494 eV    ::
         ::.................................................::
         :: SCC energy              -116.066860136403 Eh    ::
         :: -> isotropic ES            0.016470041443 Eh    ::
         :: -> anisotropic ES          0.028093584219 Eh    ::
         :: -> anisotropic XC          0.070911492344 Eh    ::
         :: -> dispersion             -0.093906953254 Eh    ::
         :: repulsion energy           1.973515703678 Eh    ::
         :: add. restraining           0.000000000000 Eh    ::
         :: total charge              -0.000000000000 e     ::
         :::::::::::::::::::::::::::::::::::::::::::::::::::::

           -------------------------------------------------
          |                Property Printout                |
           -------------------------------------------------

    * Orbital Energies and Occupations

         #    Occupation            Energy/Eh            Energy/eV
      -------------------------------------------------------------
         1        2.0000           -0.6354031             -17.2902
       ...           ...                  ...                  ...
        96        2.0000           -0.4163328             -11.3290
        97        2.0000           -0.4128955             -11.2355
        98        2.0000           -0.4114915             -11.1973
        99        2.0000           -0.4082419             -11.1088
       100        2.0000           -0.4054780             -11.0336
       101        2.0000           -0.3993857             -10.8678
       102        2.0000           -0.3975061             -10.8167
       103        2.0000           -0.3956157             -10.7652
       104        2.0000           -0.3820684             -10.3966
       105        2.0000           -0.3724182             -10.1340
       106        2.0000           -0.3611286              -9.8268
       107        2.0000           -0.3464260              -9.4267
       108        2.0000           -0.3249665              -8.8428 (HOMO)
       109                         -0.2845517              -7.7430 (LUMO)
       110                         -0.2579111              -7.0181
       111                         -0.2309801              -6.2853
       112                         -0.2055481              -5.5932
       113                         -0.1857556              -5.0547
       114                         -0.1688948              -4.5959
       115                         -0.1512696              -4.1163
       116                         -0.1319028              -3.5893
       117                         -0.1120558              -3.0492
       118                         -0.0962324              -2.6186
       119                         -0.0851283              -2.3165
       ...                                ...                  ...
       216                          0.7109561              19.3461
      -------------------------------------------------------------
                  HL-Gap            0.0404148 Eh            1.0997 eV
             Fermi-level           -0.3047591 Eh           -8.2929 eV

     #   Z          covCN         q      C6AA      α(0)
     1   6          3.758    -0.108    22.623     6.781
     2   6          2.949     0.000    28.019     8.682
     3   6          2.958    -0.014    28.362     8.735
     4   6          3.905     0.023    20.133     6.378
     5   6          3.816    -0.063    21.702     6.630
     6   6          3.805    -0.054    21.537     6.607
     7   6          3.814    -0.060    21.648     6.622
     8   6          3.761    -0.104    22.525     6.766
     9   6          3.761    -0.103    22.511     6.763
    10   6          2.901    -0.038    28.942     8.821
    11   6          2.902    -0.047    29.175     8.856
    12   6          2.947     0.009    27.817     8.650
    13   6          2.907    -0.049    29.228     8.865
    14   6          2.896    -0.037    28.925     8.818
    15   6          2.907    -0.046    29.137     8.851
    16   6          2.946     0.010    27.796     8.647
    17   6          2.908    -0.048    29.189     8.859
    18   6          2.901    -0.039    28.957     8.823
    19   6          2.900    -0.038    28.933     8.819
    20   6          2.913    -0.047    29.165     8.856
    21   6          2.946     0.010    27.793     8.647
    22   6          3.757    -0.104    22.549     6.770
    23   6          2.914    -0.046    29.145     8.853
    24   6          2.895    -0.038    28.934     8.819
    25   6          2.913    -0.049    29.210     8.863
    26   6          2.946     0.009    27.826     8.652
    27   6          3.757    -0.104    22.543     6.769
    28   6          2.908    -0.048    29.192     8.859
    29   6          2.901    -0.040    28.994     8.829
    30   6          2.957    -0.015    28.393     8.740
    31   6          2.949    -0.000    28.036     8.684
    32   6          3.814    -0.060    21.646     6.622
    33   6          3.806    -0.054    21.534     6.606
    34   6          3.816    -0.063    21.698     6.630
    35   6          3.906     0.023    20.134     6.378
    36   6          3.761    -0.103    22.517     6.765
    37   6          3.761    -0.102    22.500     6.762
    38   6          3.758    -0.108    22.615     6.780
    39   6          3.759    -0.105    22.557     6.771
    40   6          3.759    -0.105    22.555     6.771
    41   1          0.925     0.043     2.404     2.424
    42   1          0.924     0.041     2.442     2.444
    43   1          0.924     0.038     2.481     2.463
    44   1          0.924     0.029     2.596     2.520
    45   1          0.924     0.033     2.539     2.492
    46   1          0.924     0.032     2.562     2.503
    47   1          0.924     0.026     2.647     2.544
    48   1          0.924     0.036     2.505     2.475
    49   1          0.924     0.037     2.493     2.469
    50   1          0.925     0.033     2.548     2.496
    51   1          0.925     0.033     2.547     2.496
    52   1          0.925     0.037     2.486     2.466
    53   1          0.925     0.033     2.543     2.494
    54   1          0.925     0.035     2.512     2.478
    55   1          0.925     0.033     2.546     2.495
    56   1          0.926     0.036     2.496     2.471
    57   1          0.925     0.034     2.528     2.487
    58   1          0.925     0.028     2.610     2.526
    59   1          0.926     0.034     2.535     2.490
    60   1          0.925     0.028     2.619     2.531
    61   1          0.925     0.029     2.605     2.524
    62   1          0.926     0.032     2.561     2.503
    63   1          0.925     0.028     2.619     2.530
    64   1          0.925     0.027     2.624     2.533
    65   1          0.925     0.041     2.434     2.440
    66   1          0.925     0.042     2.416     2.431
    67   1          0.925     0.043     2.414     2.430
    68   1          0.925     0.026     2.640     2.541
    69   1          0.926     0.033     2.546     2.495
    70   1          0.925     0.027     2.627     2.535
    71   1          0.925     0.041     2.440     2.443
    72   1          0.925     0.043     2.415     2.430
    73   1          0.924     0.042     2.427     2.436
    74   1          0.925     0.031     2.567     2.506
    75   1          0.926     0.039     2.468     2.457
    76   1          0.924     0.036     2.504     2.475
    77   1          0.924     0.035     2.510     2.478
    78   1          0.924     0.025     2.653     2.547
    79   1          0.924     0.032     2.563     2.503
    80   1          0.924     0.033     2.544     2.494
    81   1          0.924     0.029     2.603     2.523
    82   1          0.925     0.032     2.551     2.498
    83   1          0.925     0.032     2.554     2.499
    84   1          0.925     0.036     2.501     2.473
    85   1          0.925     0.033     2.540     2.492
    86   1          0.925     0.034     2.527     2.486
    87   1          0.925     0.032     2.555     2.500
    88   1          0.925     0.042     2.418     2.432
    89   1          0.924     0.041     2.442     2.444
    90   1          0.924     0.037     2.489     2.467
    91   1          0.924     0.043     2.412     2.429
    92   1          0.925     0.036     2.502     2.474
    93   1          0.925     0.043     2.412     2.429
    94   1          0.925     0.037     2.492     2.469
    95   1          0.925     0.043     2.413     2.429
    96   1          0.925     0.043     2.409     2.427

 Mol. C6AA /au·bohr⁶  :      84486.121809
 Mol. C8AA /au·bohr⁸  :    1944422.683098
 Mol. α(0) /au        :        452.363739


Wiberg/Mayer (AO) data.
largest (>0.10) Wiberg bond orders for each atom

 ---------------------------------------------------------------------------
     #   Z sym  total        # sym  WBO       # sym  WBO       # sym  WBO
 ---------------------------------------------------------------------------
     1   6      3.995 --     2      1.024    41      0.979    43      0.977
                            42      0.968
     2   6      3.964 --     3      1.769     1      1.024     7      1.013
     3   6      3.982 --     2      1.769    10      1.095     4      0.969
     4   6      3.986 --     9      0.989     8      0.988     5      0.986
                             3      0.969
     5   6      3.997 --     6      1.009     4      0.986    45      0.976
                            44      0.975
     6   6      3.999 --     5      1.009     7      1.007    47      0.977
                            46      0.975
     7   6      3.997 --     2      1.013     6      1.007    48      0.966
                            49      0.958
     8   6      3.996 --     4      0.988    50      0.987    51      0.985
                            52      0.982
     9   6      3.995 --     4      0.989    55      0.985    54      0.984
                            53      0.984
    10   6      3.946 --    11      1.714     3      1.095    56      0.951
    11   6      3.986 --    10      1.714    12      1.168    57      0.961
    12   6      3.908 --    13      1.589    11      1.168    40      1.022
    13   6      3.979 --    12      1.589    14      1.245    58      0.958
    14   6      3.949 --    15      1.593    13      1.245    59      0.957
    15   6      3.973 --    14      1.593    16      1.224    60      0.963
    16   6      3.912 --    17      1.540    15      1.224    39      1.022
    17   6      3.929 --    16      1.540    18      1.271    61      0.958
    18   6      3.927 --    19      1.561    17      1.271    62      0.962
    19   6      3.953 --    18      1.561    20      1.267    63      0.957
    20   6      3.931 --    21      1.545    19      1.267    64      0.961
    21   6      3.911 --    20      1.545    23      1.218    22      1.024
    22   6      3.996 --    21      1.024    65      0.979    67      0.971
                            66      0.971
    23   6      3.940 --    24      1.604    21      1.218    68      0.962
    24   6      3.918 --    23      1.604    25      1.234    69      0.956
    25   6      3.964 --    26      1.597    24      1.234    70      0.961
    26   6      3.913 --    25      1.597    28      1.165    27      1.025
    27   6      3.996 --    26      1.025    71      0.979    72      0.972
                            73      0.969
    28   6      3.987 --    29      1.720    26      1.165    74      0.961
    29   6      3.915 --    28      1.720    30      1.090    75      0.953
    30   6      3.983 --    31      1.774    29      1.090    35      0.969
    31   6      3.950 --    30      1.774    38      1.024    32      1.012
    32   6      3.997 --    31      1.012    33      1.007    77      0.967
                            76      0.959
    33   6      3.999 --    34      1.009    32      1.007    78      0.977
                            79      0.975
    34   6      3.997 --    33      1.009    35      0.986    80      0.976
                            81      0.975
    35   6      3.986 --    37      0.989    36      0.988    34      0.986
                            30      0.969
    36   6      3.996 --    35      0.988    82      0.987    83      0.985
                            84      0.982
    37   6      3.995 --    35      0.989    87      0.985    86      0.984
                            85      0.984
    38   6      3.995 --    31      1.024    88      0.980    90      0.977
                            89      0.969
    39   6      3.996 --    16      1.022    92      0.985    93      0.973
                            91      0.972
    40   6      3.996 --    12      1.022    94      0.985    96      0.972
                            95      0.971
    41   1      0.998 --     1      0.979
    42   1      0.996 --     1      0.968
    43   1      0.997 --     1      0.977
    44   1      0.998 --     5      0.975
    45   1      0.999 --     5      0.976
    46   1      0.999 --     6      0.975
    47   1      0.998 --     6      0.977
    48   1      0.997 --     7      0.966
    49   1      0.997 --     7      0.958
    50   1      0.999 --     8      0.987
    51   1      0.998 --     8      0.985
    52   1      0.998 --     8      0.982
    53   1      0.999 --     9      0.984
    54   1      0.999 --     9      0.984
    55   1      0.998 --     9      0.985
    56   1      0.999 --    10      0.951
    57   1      0.998 --    11      0.961
    58   1      0.999 --    13      0.958
    59   1      0.999 --    14      0.957
    60   1      0.999 --    15      0.963
    61   1      0.999 --    17      0.958
    62   1      0.999 --    18      0.962
    63   1      0.999 --    19      0.957
    64   1      0.999 --    20      0.961
    65   1      0.998 --    22      0.979
    66   1      0.995 --    22      0.971
    67   1      0.995 --    22      0.971
    68   1      0.999 --    23      0.962
    69   1      0.999 --    24      0.956
    70   1      0.999 --    25      0.961
    71   1      0.998 --    27      0.979
    72   1      0.995 --    27      0.972
    73   1      0.995 --    27      0.969
    74   1      0.999 --    28      0.961
    75   1      0.998 --    29      0.953
    76   1      0.997 --    32      0.959
    77   1      0.997 --    32      0.967
    78   1      0.998 --    33      0.977
    79   1      0.999 --    33      0.975
    80   1      0.999 --    34      0.976
    81   1      0.998 --    34      0.975
    82   1      0.999 --    36      0.987
    83   1      0.998 --    36      0.985
    84   1      0.998 --    36      0.982
    85   1      0.999 --    37      0.984
    86   1      0.999 --    37      0.984
    87   1      0.998 --    37      0.985
    88   1      0.998 --    38      0.980
    89   1      0.997 --    38      0.969
    90   1      0.997 --    38      0.977
    91   1      0.994 --    39      0.972
    92   1      0.999 --    39      0.985
    93   1      0.995 --    39      0.973
    94   1      0.999 --    40      0.985
    95   1      0.996 --    40      0.971
    96   1      0.996 --    40      0.972
 ---------------------------------------------------------------------------

Topologies differ in total number of bonds
Writing topology from bond orders to xtbtopo.mol

molecular dipole:
                 x           y           z       tot (Debye)
 q only:        0.272       0.134      -0.086
   full:        0.295       0.086      -0.095       0.818
molecular quadrupole (traceless):
                xx          xy          yy          xz          yz          zz
 q only:       -0.817     -14.683      14.808       3.276      -4.414     -13.991
  q+dip:        3.529     -15.054      21.688       5.533      -7.702     -25.217
   full:        0.235     -14.955      18.406       4.187      -5.626     -18.641

           -------------------------------------------------
          |                Geometry Summary                 |
           -------------------------------------------------

      molecular mass/u    :      536.8741180
   center of mass at/Å    :        2.1209474     -11.5598279       1.9936924
  moments of inertia/u·Å² :        0.1488194E+04   0.4635439E+05   0.4690098E+05
rotational constants/cm⁻¹ :        0.1132758E-01   0.3636685E-03   0.3594303E-03

 * 83 selected distances

     #   Z          #   Z                                           value/Å
     2   6          3   6                                         1.3411872
     4   6          5   6                                         1.5358668
     5   6          6   6                                         1.5201714
     6   6          7   6                                         1.5205837
     4   6          8   6                                         1.5367092
     4   6          9   6                                         1.5351204
    10   6         11   6                                         1.3462273
    12   6         13   6                                         1.3626226
    13   6         14   6                                         1.4166020
    14   6         15   6                                         1.3608223
    15   6         16   6                                         1.4257361
    16   6         17   6                                         1.3691512
    17   6         18   6                                         1.4110887
    18   6         19   6                                         1.3643360
    19   6         20   6                                         1.4115188
    20   6         21   6                                         1.3688157
    21   6         23   6                                         1.4264931
    23   6         24   6                                         1.3588044
    24   6         25   6                                         1.4186902
    25   6         26   6                                         1.3618123
    28   6         29   6                                         1.3450951
    30   6         31   6                                         1.3403063
    32   6         33   6                                         1.5205384
    33   6         34   6                                         1.5201697
    34   6         35   6                                         1.5358505
    35   6         36   6                                         1.5369370 (max)
    35   6         37   6                                         1.5351011
     1   6         41   1                                         1.0863244
     1   6         42   1                                         1.0906041
     1   6         43   1                                         1.0902503
     5   6         44   1                                         1.0921114
     5   6         45   1                                         1.0928014
     6   6         46   1                                         1.0911238
     6   6         47   1                                         1.0920289
     7   6         48   1                                         1.0936125
     7   6         49   1                                         1.0960385
     8   6         50   1                                         1.0882653
     8   6         51   1                                         1.0884952
     8   6         52   1                                         1.0864893
     9   6         53   1                                         1.0872888
     9   6         54   1                                         1.0879830
     9   6         55   1                                         1.0883495
    10   6         56   1                                         1.0798145
    11   6         57   1                                         1.0823162
    13   6         58   1                                         1.0819544
    14   6         59   1                                         1.0789979 (min)
    15   6         60   1                                         1.0844686
    17   6         61   1                                         1.0816022
    18   6         62   1                                         1.0811601
    19   6         63   1                                         1.0815844
    20   6         64   1                                         1.0845872
    22   6         65   1                                         1.0843293
    22   6         66   1                                         1.0898552
    22   6         67   1                                         1.0898389
Note: The following floating-point exceptions are signalling: IEEE_UNDERFLOW_FLAG
normal termination of xtb
    23   6         68   1                                         1.0839280
    24   6         69   1                                         1.0791362
    25   6         70   1                                         1.0844890
    27   6         71   1                                         1.0844660
    27   6         72   1                                         1.0894953
    27   6         73   1                                         1.0902553
    28   6         74   1                                         1.0819687
    29   6         75   1                                         1.0796866
    32   6         76   1                                         1.0960550
    32   6         77   1                                         1.0934954
    33   6         78   1                                         1.0920850
    33   6         79   1                                         1.0911557
    34   6         80   1                                         1.0928378
    34   6         81   1                                         1.0921779
    36   6         82   1                                         1.0882334
    36   6         83   1                                         1.0885109
    36   6         84   1                                         1.0865340
    37   6         85   1                                         1.0871677
    37   6         86   1                                         1.0879563
    37   6         87   1                                         1.0884121
    38   6         88   1                                         1.0862285
    38   6         89   1                                         1.0903974
    38   6         90   1                                         1.0902659
    39   6         91   1                                         1.0902420
    39   6         92   1                                         1.0873518
    39   6         93   1                                         1.0896788
    40   6         94   1                                         1.0871469
    40   6         95   1                                         1.0898940
    40   6         96   1                                         1.0894130

 * 2 distinct bonds (by element types)

   Z      Z             #   av. dist./Å        max./Å        min./Å
   1 H    6 C          56     1.0876954     1.0960550     1.0789979
   6 C    6 C          27     1.4343095     1.5369370     1.3403063


optimized geometry written to: xtbopt.xyz


           -------------------------------------------------
          | TOTAL ENERGY             -114.093344432725 Eh   |
          | GRADIENT NORM               0.000646008802 Eh/α |
          | HOMO-LUMO GAP               1.099742946494 eV   |
           -------------------------------------------------

------------------------------------------------------------------------
 * finished run on 2026/08/28 at 19:11:48.520     
------------------------------------------------------------------------
 total:
 * wall-time:     0 d,  0 h,  0 min, 26.766 sec
 *  cpu-time:     0 d,  0 h,  0 min, 25.797 sec
 * ratio c/w:     0.964 speedup
 SCF:
 * wall-time:     0 d,  0 h,  0 min,  0.533 sec
 *  cpu-time:     0 d,  0 h,  0 min,  0.500 sec
 * ratio c/w:     0.937 speedup
 ANC optimizer:
 * wall-time:     0 d,  0 h,  0 min, 26.133 sec
 *  cpu-time:     0 d,  0 h,  0 min, 25.250 sec
 * ratio c/w:     0.966 speedup

