      -----------------------------------------------------------      
     |                   =====================                   |     
     |                           x T B                           |     
     |                   =====================                   |     
     |                         S. Grimme                         |     
     |          Mulliken Center for Theoretical Chemistry        |     
     |                    University of Bonn                     |     
      -----------------------------------------------------------      

   * xtb version 6.7.1 (unknown) compiled by 'root@buildkitsandbox' on 2026-08-28

   xtb is free software: you can redistribute it and/or modify it under
   the terms of the GNU Lesser General Public License as published by
   the Free Software Foundation, either version 3 of the License, or
   (at your option) any later version.
   
   xtb is distributed in the hope that it will be useful,
   but WITHOUT ANY WARRANTY; without even the implied warranty of
   MERCHANTABILITY or FITNESS FOR A PARTICULAR PURPOSE.  See the
   GNU Lesser General Public License for more details.
   
   Cite this work as:
   * C. Bannwarth, E. Caldeweyher, S. Ehlert, A. Hansen, P. Pracht,
     J. Seibert, S. Spicher, S. Grimme, WIREs Comput. Mol. Sci., 2020, 11,
     e01493. DOI: 10.1002/wcms.1493
   
   for GFN2-xTB:
   * C. Bannwarth, S. Ehlert and S. Grimme., J. Chem. Theory Comput., 2019,
     15, 1652-1671. DOI: 10.1021/acs.jctc.8b01176
   for GFN1-xTB:
   * S. Grimme, C. Bannwarth, P. Shushkov, J. Chem. Theory Comput., 2017,
     13, 1989-2009. DOI: 10.1021/acs.jctc.7b00118
   for GFN0-xTB:
   * P. Pracht, E. Caldeweyher, S. Ehlert, S. Grimme, ChemRxiv, 2019, preprint.
     DOI: 10.26434/chemrxiv.8326202.v1
   for GFN-FF:
   * S. Spicher and S. Grimme, Angew. Chem. Int. Ed., 2020, 59, 15665-15673.
     DOI: 10.1002/anie.202004239
   
   for ALPB and GBSA implicit solvation:
   * S. Ehlert, M. Stahn, S. Spicher, S. Grimme, J. Chem. Theory Comput.,
     2021, 17, 4250-4261. DOI: 10.1021/acs.jctc.1c00471
   
   for ddCOSMO and CPCM-X implicit solvation:
   * M. Stahn, S. Ehlert, S. Grimme, J. Phys. Chem. A,
     2023, XX, XXXX-XXXX. DOI: 10.1021/acs.jpca.3c04382
   
   for DFT-D4:
   * E. Caldeweyher, C. Bannwarth and S. Grimme, J. Chem. Phys., 2017,
     147, 034112. DOI: 10.1063/1.4993215
   * E. Caldeweyher, S. Ehlert, A. Hansen, H. Neugebauer, S. Spicher,
     C. Bannwarth and S. Grimme, J. Chem. Phys., 2019, 150, 154122.
     DOI: 10.1063/1.5090222
   * E. Caldeweyher, J.-M. Mewes, S. Ehlert and S. Grimme, Phys. Chem. Chem. Phys.
     2020, 22, 8499-8512. DOI: 10.1039/D0CP00502A
   
   for sTDA-xTB:
   * S. Grimme and C. Bannwarth, J. Chem. Phys., 2016, 145, 054103.
     DOI: 10.1063/1.4959605
   
   in the mass-spec context:
   * V. Asgeirsson, C. Bauer and S. Grimme, Chem. Sci., 2017, 8, 4879.
     DOI: 10.1039/c7sc00601b
   * J. Koopman and S. Grimme, ACS Omega 2019, 4, 12, 15120-15133.
     DOI: 10.1021/acsomega.9b02011
   
   for metadynamics refer to:
   * S. Grimme, J. Chem. Theory Comput., 2019, 155, 2847-2862
     DOI: 10.1021/acs.jctc.9b00143
   
   for SPH calculations refer to:
   * S. Spicher and S. Grimme, J. Chem. Theory Comput., 2021, 17, 1701-1714
     DOI: 10.1021/acs.jctc.0c01306
   
   for ONIOM refer to:
   * C. Plett, A. Katbashev, S. Ehlert, S. Grimme, M. Bursch,
     Phys. Chem. Chem. Phys., 2023, 25, 17860-17868. DOI: 10.1039/D3CP02178E
   
   for DIPRO refer to:
   * J. Kohn, N. Gildemeister, S. Grimme, D. Fazzi, A. Hansen,
     J. Chem. Phys. 159, 144106 (2023). DOI: 10.1063/5.0167484
   
   for PTB refer to:
   * S. Grimme, M. Mueller, A. Hansen, J. Chem. Phys., 2023, 158, 124111.
     DOI: 10.1063/5.0137838
   
   with help from (in alphabetical order)
   P. Atkinson, C. Bannwarth, F. Bohle, G. Brandenburg, E. Caldeweyher,
   M. Checinski, S. Dohm, S. Ehlert, S. Ehrlich, M. Friede, T. Froitzheim,
   I. Gerasimov, C. Hölzer, A. Katbashev, J. Kohn, J. Koopman, C. Lavigne,
   S. Lehtola, F. März, M. Müller, F. Musil, H. Neugebauer, J. Pisarek,
   C. Plett, P. Pracht, F. Pultar, J. Seibert, P. Shushkov, S. Spicher,
   M. Stahn, M. Steiner, T. Strunk, J. Stückrath, T. Rose, and J. Unsleber
   
 * started run on 2026/08/28 at 19:10:03.886     
   ID    Z sym.   atoms
    1    6 C      1, 3, 5-7, 10, 11, 14
    2    7 N      2, 4, 9, 13
    3    8 O      8, 12
    4    1 H      15-24

           -------------------------------------------------
          |                Calculation Setup                |
           -------------------------------------------------

          program call               : xtb in.xyz --gfn 2 --opt --norestart
          hostname                   : 756d39058c4f
          coordinate file            : in.xyz
          random seed                :             546118034


           -------------------------------------------------
          |                 G F N 2 - x T B                 |
           -------------------------------------------------

        Reference                      10.1021/acs.jctc.8b01176
      * Hamiltonian:
        H0-scaling (s, p, d)           1.850000    2.230000    2.230000
        zeta-weighting                 0.500000
      * Dispersion:
        s8                             2.700000
        a1                             0.520000
        a2                             5.000000
        s9                             5.000000
      * Repulsion:
        kExp                           1.500000    1.000000
        rExp                           1.000000
      * Coulomb:
        alpha                          2.000000
        third order                    shell-resolved
        anisotropic                    true
        a3                             3.000000
        a5                             4.000000
        cn-shift                       1.200000
        cn-exp                         4.000000
        max-rad                        5.000000


          ...................................................
          :                      SETUP                      :
          :.................................................:
          :  # basis functions                  66          :
          :  # atomic orbitals                  66          :
          :  # shells                           38          :
          :  # electrons                        74          :
          :  max. iterations                   250          :
          :  Hamiltonian                  GFN2-xTB          :
          :  restarted?                      false          :
          :  GBSA solvation                  false          :
          :  PC potential                    false          :
          :  electronic temp.          300.0000000     K    :
          :  accuracy                    1.0000000          :
          :  -> integral cutoff          0.2500000E+02      :
          :  -> integral neglect         0.1000000E-07      :
          :  -> SCF convergence          0.1000000E-05 Eh   :
          :  -> wf. convergence          0.1000000E-03 e    :
          :  Broyden damping             0.4000000          :
          :  net charge                          0          :
          :  unpaired electrons                  0          :
          ...................................................

 iter      E             dE          RMSdq      gap      omega  full diag
   1    -42.4881680 -0.424882E+02  0.433E+00    3.35       0.0  T
   2    -42.6309566 -0.142789E+00  0.256E+00    3.37       1.0  T
   3    -42.6384791 -0.752243E-02  0.142E+00    3.40       1.0  T
   4    -42.6379499  0.529171E-03  0.297E-01    3.33       1.0  T
   5    -42.6396496 -0.169973E-02  0.883E-02    3.35       1.0  T
   6    -42.6396761 -0.264323E-04  0.492E-02    3.36       1.0  T
   7    -42.6396898 -0.137127E-04  0.216E-02    3.36       1.0  T
   8    -42.6396915 -0.169653E-05  0.615E-03    3.36       3.3  T
   9    -42.6396916 -0.147503E-06  0.304E-03    3.36       6.7  T
  10    -42.6396917 -0.493629E-07  0.107E-03    3.36      19.1  T
  11    -42.6396917 -0.114215E-07  0.464E-04    3.36      44.0  T
  12    -42.6396917 -0.845681E-09  0.166E-04    3.36     122.6  T

   *** convergence criteria satisfied after 12 iterations ***

         #    Occupation            Energy/Eh            Energy/eV
      -------------------------------------------------------------
         1        2.0000           -0.7201503             -19.5963
       ...           ...                  ...                  ...
        31        2.0000           -0.4564367             -12.4203
        32        2.0000           -0.4379824             -11.9181
        33        2.0000           -0.4264755             -11.6050
        34        2.0000           -0.4193249             -11.4104
        35        2.0000           -0.4148235             -11.2879
        36        2.0000           -0.4035577             -10.9814
        37        2.0000           -0.3892624             -10.5924 (HOMO)
        38                         -0.2657312              -7.2309 (LUMO)
        39                         -0.2266307              -6.1669
        40                         -0.2097716              -5.7082
        41                         -0.1226125              -3.3365
        42                         -0.0560966              -1.5265
       ...                                ...                  ...
        66                          0.6585710              17.9206
      -------------------------------------------------------------
                  HL-Gap            0.1235312 Eh            3.3615 eV
             Fermi-level           -0.3274968 Eh           -8.9116 eV

 SCC (total)                   0 d,  0 h,  0 min,  0.051 sec
 SCC setup                      ...        0 min,  0.000 sec (  0.215%)
 Dispersion                     ...        0 min,  0.000 sec (  0.614%)
 classical contributions        ...        0 min,  0.000 sec (  0.030%)
 integral evaluation            ...        0 min,  0.002 sec (  4.028%)
 iterations                     ...        0 min,  0.032 sec ( 63.496%)
 molecular gradient             ...        0 min,  0.016 sec ( 31.171%)
 printout                       ...        0 min,  0.000 sec (  0.421%)

         :::::::::::::::::::::::::::::::::::::::::::::::::::::
         ::                     SUMMARY                     ::
         :::::::::::::::::::::::::::::::::::::::::::::::::::::
         :: total energy             -42.147427514974 Eh    ::
         :: gradient norm              0.075396043098 Eh/a0 ::
         :: HOMO-LUMO gap              3.361456240305 eV    ::
         ::.................................................::
         :: SCC energy               -42.639595239373 Eh    ::
         :: -> isotropic ES            0.084228401959 Eh    ::
         :: -> anisotropic ES          0.003858519239 Eh    ::
         :: -> anisotropic XC          0.014371058463 Eh    ::
         :: -> dispersion             -0.023256557516 Eh    ::
         :: repulsion energy           0.492167724399 Eh    ::
         :: add. restraining           0.000000000000 Eh    ::
         :: total charge              -0.000000000000 e     ::
         :::::::::::::::::::::::::::::::::::::::::::::::::::::

      ----------------------------------------------------------- 
     |                   =====================                   |
     |                        A N C O P T                        |
     |                   =====================                   |
     |               Approximate Normal Coordinate               |
     |                Rational Function Optimizer                |
      ----------------------------------------------------------- 

          ...................................................
          :                      SETUP                      :
          :.................................................:
          :   optimization level            normal          :
          :   max. optcycles                   200          :
          :   ANC micro-cycles                  20          :
          :   degrees of freedom                66          :
          :.................................................:
          :   RF solver                   davidson          :
          :   write xtbopt.log                true          :
          :   linear?                        false          :
          :   energy convergence         0.5000000E-05 Eh   :
          :   grad. convergence          0.1000000E-02 Eh/α :
          :   maximum RF displ.          1.0000000          :
          :   Hlow (freq-cutoff)         0.1000000E-01      :
          :   Hmax (freq-cutoff)         5.0000000          :
          :   S6 in model hess.         20.0000000          :
          ...................................................

generating ANC from exact Hessian ...
Using Lindh-Hessian (1995)
 Shifting diagonal of input Hessian by    6.8674686272421296E-003
 Lowest  eigenvalues of input Hessian
    0.000000    0.000000    0.000000    0.000000    0.000000    0.000000
    0.010000    0.010907    0.012224    0.016112    0.016201    0.018275
    0.018986    0.020023    0.026602    0.030827    0.041813    0.050329
 Highest eigenvalues
    1.987923    2.070249    2.110122    2.158238    2.362468    2.439465


........................................................................
.............................. CYCLE    1 ..............................
........................................................................

 iter      E             dE          RMSdq      gap      omega  full diag
   1    -42.6396917 -0.426397E+02  0.417E-05    3.36       0.0  T
   2    -42.6396917 -0.407141E-11  0.232E-05    3.36     879.6  T
   3    -42.6396917  0.781597E-13  0.125E-05    3.36    1637.6  T
     SCC iter.                  ...        0 min,  0.006 sec
     gradient                   ...        0 min,  0.010 sec
 * total energy  :   -42.1474275 Eh     change       -0.2151666E-09 Eh
   gradient norm :     0.0753952 Eh/α   predicted     0.0000000E+00 (-100.00%)
   displ. norm   :     0.2271517 α      lambda       -0.8493024E-02
   maximum displ.:     0.1219588 α      in ANC's #13, #32, #20, ...

........................................................................
.............................. CYCLE    2 ..............................
........................................................................

 iter      E             dE          RMSdq      gap      omega  full diag
   1    -42.6597798 -0.426598E+02  0.231E-01    3.40       0.0  T
   2    -42.6599285 -0.148666E-03  0.142E-01    3.41       1.0  T
   3    -42.6599263  0.215648E-05  0.694E-02    3.41       1.0  T
   4    -42.6599647 -0.383778E-04  0.184E-02    3.41       1.1  T
   5    -42.6599704 -0.564811E-05  0.539E-03    3.41       3.8  T
   6    -42.6599704 -0.753371E-07  0.252E-03    3.41       8.1  T
   7    -42.6599704 -0.105908E-07  0.626E-04    3.41      32.6  T
   8    -42.6599704 -0.146084E-08  0.318E-04    3.41      64.2  T
     SCC iter.                  ...        0 min,  0.016 sec
     gradient                   ...        0 min,  0.006 sec
 * total energy  :   -42.1529856 Eh     change       -0.5558054E-02 Eh
   gradient norm :     0.0265633 Eh/α   predicted    -0.4466599E-02 ( -19.64%)
   displ. norm   :     0.1338424 α      lambda       -0.1499429E-02
   maximum displ.:     0.0815461 α      in ANC's #13, #7, #17, ...

........................................................................
.............................. CYCLE    3 ..............................
........................................................................

 iter      E             dE          RMSdq      gap      omega  full diag
   1    -42.6668583 -0.426669E+02  0.113E-01    3.44       0.0  T
   2    -42.6668924 -0.341180E-04  0.665E-02    3.43       1.0  T
   3    -42.6668937 -0.121973E-05  0.363E-02    3.43       1.0  T
   4    -42.6669028 -0.917073E-05  0.915E-03    3.43       2.2  T
   5    -42.6669043 -0.144061E-05  0.227E-03    3.43       9.0  T
   6    -42.6669043 -0.725788E-08  0.103E-03    3.43      19.8  T
   7    -42.6669043 -0.385508E-08  0.228E-04    3.43      89.5  T
   8    -42.6669043 -0.272259E-09  0.125E-04    3.43     162.7  T
     SCC iter.                  ...        0 min,  0.016 sec
     gradient                   ...        0 min,  0.005 sec
 * total energy  :   -42.1538218 Eh     change       -0.8362164E-03 Eh
   gradient norm :     0.0096000 Eh/α   predicted    -0.7631924E-03 (  -8.73%)
   displ. norm   :     0.0411083 α      lambda       -0.1114843E-03
   maximum displ.:     0.0325032 α      in ANC's #7, #17, #13, ...

........................................................................
.............................. CYCLE    4 ..............................
........................................................................

 iter      E             dE          RMSdq      gap      omega  full diag
   1    -42.6670197 -0.426670E+02  0.272E-02    3.44       0.0  T
   2    -42.6670226 -0.295926E-05  0.144E-02    3.43       1.4  T
   3    -42.6670227 -0.974172E-08  0.854E-03    3.43       2.4  T
   4    -42.6670230 -0.327819E-06  0.234E-03    3.43       8.7  T
   5    -42.6670231 -0.101585E-06  0.451E-04    3.43      45.2  T
   6    -42.6670231 -0.144619E-08  0.241E-04    3.43      84.6  T
     SCC iter.                  ...        0 min,  0.011 sec
     gradient                   ...        0 min,  0.014 sec
 * total energy  :   -42.1539027 Eh     change       -0.8088975E-04 Eh
   gradient norm :     0.0052261 Eh/α   predicted    -0.5774256E-04 ( -28.62%)
   displ. norm   :     0.0365366 α      lambda       -0.5197716E-04
   maximum displ.:     0.0306821 α      in ANC's #7, #17, #21, ...

........................................................................
.............................. CYCLE    5 ..............................
........................................................................

 iter      E             dE          RMSdq      gap      omega  full diag
   1    -42.6666401 -0.426666E+02  0.231E-02    3.43       0.0  T
   2    -42.6666419 -0.180503E-05  0.123E-02    3.43       1.7  T
   3    -42.6666419  0.211909E-07  0.627E-03    3.43       3.3  T
   4    -42.6666420 -0.133453E-06  0.160E-03    3.43      12.8  T
   5    -42.6666421 -0.535235E-07  0.434E-04    3.43      47.1  T
   6    -42.6666421 -0.217380E-08  0.192E-04    3.43     106.5  T
     SCC iter.                  ...        0 min,  0.014 sec
     gradient                   ...        0 min,  0.006 sec
 * total energy  :   -42.1539327 Eh     change       -0.3006952E-04 Eh
   gradient norm :     0.0021729 Eh/α   predicted    -0.2603504E-04 ( -13.42%)
   displ. norm   :     0.0098861 α      lambda       -0.5155161E-05
   maximum displ.:     0.0069860 α      in ANC's #7, #4, #10, ...

........................................................................
.............................. CYCLE    6 ..............................
........................................................................

 iter      E             dE          RMSdq      gap      omega  full diag
   1    -42.6665361 -0.426665E+02  0.574E-03    3.43       0.0  T
   2    -42.6665362 -0.108648E-06  0.329E-03    3.43       6.2  T
   3    -42.6665362 -0.326504E-08  0.143E-03    3.43      14.3  T
   4    -42.6665362 -0.451344E-08  0.244E-04    3.43      83.5  T
   5    -42.6665362 -0.909964E-09  0.867E-05    3.43     235.5  T
     SCC iter.                  ...        0 min,  0.010 sec
     gradient                   ...        0 min,  0.013 sec
 * total energy  :   -42.1539362 Eh     change       -0.3450772E-05 Eh
   gradient norm :     0.0010514 Eh/α   predicted    -0.2579204E-05 ( -25.26%)
   displ. norm   :     0.0092337 α      lambda       -0.1640932E-05
   maximum displ.:     0.0073443 α      in ANC's #4, #7, #10, ...

........................................................................
.............................. CYCLE    7 ..............................
........................................................................

 iter      E             dE          RMSdq      gap      omega  full diag
   1    -42.6665427 -0.426665E+02  0.462E-03    3.42       0.0  T
   2    -42.6665427 -0.645996E-07  0.275E-03    3.42       7.4  T
   3    -42.6665427 -0.151780E-08  0.109E-03    3.42      18.8  T
   4    -42.6665427 -0.280995E-08  0.215E-04    3.42      95.2  T
   5    -42.6665427 -0.560846E-09  0.756E-05    3.42     269.9  T
     SCC iter.                  ...        0 min,  0.017 sec
     gradient                   ...        0 min,  0.010 sec
 * total energy  :   -42.1539372 Eh     change       -0.9814071E-06 Eh
   gradient norm :     0.0004253 Eh/α   predicted    -0.8348265E-06 ( -14.94%)
   displ. norm   :     0.0023657 α      lambda       -0.1777917E-06
   maximum displ.:     0.0015929 α      in ANC's #7, #4, #10, ...

   *** GEOMETRY OPTIMIZATION CONVERGED AFTER 7 ITERATIONS ***

------------------------------------------------------------------------
 total energy gain   :        -0.0065097 Eh       -4.0849 kcal/mol
 total RMSD          :         0.0816492 a0        0.0432 Å
 total power (kW/mol):        -2.4415878 (step)  -87.4020 (real)
------------------------------------------------------------------------

 ANCopt (total)                0 d,  0 h,  0 min,  0.196 sec
 optimizer setup                ...        0 min,  0.000 sec (  0.123%)
 model hessian                  ...        0 min,  0.003 sec (  1.485%)
 ANC generation                 ...        0 min,  0.004 sec (  2.268%)
 coordinate transformation      ...        0 min,  0.000 sec (  0.102%)
 single point calculation       ...        0 min,  0.186 sec ( 94.865%)
 optimization log               ...        0 min,  0.001 sec (  0.282%)
 hessian update                 ...        0 min,  0.000 sec (  0.041%)
 rational function              ...        0 min,  0.001 sec (  0.319%)

================
 final structure:
================
24
 xtb: 6.7.1 (unknown)
C           -3.25044917573861       -1.13340220914555        0.01696686317530
N           -2.28581649132798       -0.07176390576008        0.01159597120635
C           -2.50136911444137        1.25492729830384        0.00500655897673
N           -1.39591725607687        1.96959492111771        0.00145808268473
C           -0.40073646505705        1.05582756923408        0.00599575388304
C           -0.91922474350747       -0.23101772174365        0.01240625669767
C           -0.09241416931629       -1.39926888302270        0.01828977769924
O           -0.46372137064875       -2.55748247440015        0.02393231373166
N            1.26125242360936       -1.04978951166671        0.01673759706535
C            2.23165501503209       -2.13266006193159        0.02220221825921
C            1.81358544555996        0.22527231949522        0.01051542224442
O            3.01451662595580        0.38460659898759        0.01006644531882
N            0.93783529852783        1.29103945421310        0.00502568584767
C            1.44022600642917        2.64732367443918       -0.00199152712487
H           -4.25317856770941       -0.71029956105370        0.01449923707247
H           -3.11375614039029       -1.75635791760840        0.90208853984947
H           -3.11332116430197       -1.76565998032304       -0.86146036393411
H           -3.48203573387139        1.68749113200791        0.00283770759572
H            1.67871777625679       -3.06906476435023        0.02332729030360
H            2.86125282881925       -2.06011128079867        0.90853299474011
H            2.86583498131572       -2.06463129223653       -0.86118113164589
H            2.52710372707397        2.59902222047455        0.00615281377885
H            1.07657899541993        3.17760432648696        0.87771661848947
H            1.08993126838756        3.16420004928084       -0.89509112591502

 Bond Distances (Angstroems)
 ---------------------------
C1-N2=1.4344         C1-H15=1.0883        C1-H16=1.0910        C1-H17=1.0910        N2-C1=1.4344         N2-C3=1.3441         
N2-C6=1.3758         C3-N2=1.3441         C3-N4=1.3164         C3-H18=1.0718        N4-C3=1.3164         N4-C5=1.3511         
C5-N4=1.3511         C5-C6=1.3874         C5-N13=1.3591        C6-N2=1.3758         C6-C5=1.3874         C6-C7=1.4312         
C7-C6=1.4312         C7-O8=1.2163         C7-N9=1.3981         O8-C7=1.2163         N9-C7=1.3981         N9-C10=1.4541        
N9-C11=1.3896        C10-N9=1.4541        C10-H19=1.0875       C10-H20=1.0896       C10-H21=1.0896       C11-N9=1.3896        
C11-O12=1.2115       C11-N13=1.3794       O12-C11=1.2115       N13-C5=1.3591        N13-C11=1.3794       N13-C14=1.4464       
C14-N13=1.4464       C14-H22=1.0880       C14-H23=1.0896       C14-H24=1.0897       H15-C1=1.0883        H16-C1=1.0910        
H17-C1=1.0910        H18-C3=1.0718        H19-C10=1.0875       H20-C10=1.0896       H21-C10=1.0896       H22-C14=1.0880       
H23-C14=1.0896       H24-C14=1.0897       
 C  H  Rav=1.0876 sigma=0.0054  Rmin=1.0718  Rmax=1.0910    10
 C  C  Rav=1.4093 sigma=0.0219  Rmin=1.3874  Rmax=1.4312     2
 N  C  Rav=1.3862 sigma=0.0421  Rmin=1.3164  Rmax=1.4541    11
 O  C  Rav=1.2139 sigma=0.0024  Rmin=1.2115  Rmax=1.2163     2

 selected bond angles (degree)
 --------------------
H15-C1-N2=109.38               H16-C1-N2=109.96               H16-C1-H15=109.83              H17-C1-N2=109.96               
H17-C1-H15=109.83              H17-C1-H16=107.85              C3-N2-C1=128.51                C6-N2-C1=125.61                
C6-N2-C3=105.88                N4-C3-N2=113.65                H18-C3-N2=123.03               H18-C3-N4=123.32               
C5-N4-C3=104.56                C6-C5-N4=110.61                N13-C5-N4=127.48               N13-C5-C6=121.91               
C5-C6-N2=105.30                C7-C6-N2=131.93                C7-C6-C5=122.77                O8-C7-C6=126.94                
N9-C7-C6=110.81                N9-C7-O8=122.25                C10-N9-C7=117.39               C11-N9-C7=127.90               
C11-N9-C10=114.71              H19-C10-N9=107.57              H20-C10-N9=109.82              H20-C10-H19=110.51             
H21-C10-N9=109.81              H21-C10-H19=110.52             H21-C10-H20=108.60             

 selected dihedral angles (degree)
 ---------------------------------
C3-N2-C1-H15=  0.02           C3-N2-C1-H16=239.33           C3-N2-C1-H17=120.72           C6-N2-C1-H15=180.02           
C6-N2-C1-H16= 59.33           C6-N2-C1-H17=300.71           N4-C3-N2-C1=179.99            N4-C3-N2-C6=  0.00            
H18-C3-N2-C1=  0.00           H18-C3-N2-C6=180.00           C5-N4-C3-N2=  0.00            C5-N4-C3-H18=180.00           
C6-C5-N4-C3=  0.00            N13-C5-N4-C3=180.01           C5-C6-N2-C1=180.00            C5-C6-N2-C3=  0.00            
C7-C6-N2-C1=  0.00            C7-C6-N2-C3=180.00            N2-C6-C5-N4=  0.00            N2-C6-C5-N13=179.99           
C7-C6-C5-N4=180.00            C7-C6-C5-N13=  0.00           O8-C7-C6-N2=  0.00            O8-C7-C6-C5=180.01            
N9-C7-C6-N2=180.01            N9-C7-C6-C5=  0.00            C10-N9-C7-C6=180.00           C10-N9-C7-O8=  0.00           
C11-N9-C7-C6=  0.00           C11-N9-C7-O8=180.00           H19-C10-N9-C7=  0.19          H19-C10-N9-C11=180.19         
H20-C10-N9-C7=239.87          H20-C10-N9-C11= 59.88         H21-C10-N9-C7=120.52          H21-C10-N9-C11=300.52         
           -------------------------------------------------
          |                Final Singlepoint                |
           -------------------------------------------------

          ...................................................
          :                      SETUP                      :
          :.................................................:
          :  # basis functions                  66          :
          :  # atomic orbitals                  66          :
          :  # shells                           38          :
          :  # electrons                        74          :
          :  max. iterations                   250          :
          :  Hamiltonian                  GFN2-xTB          :
          :  restarted?                      false          :
          :  GBSA solvation                  false          :
          :  PC potential                    false          :
          :  electronic temp.          300.0000000     K    :
          :  accuracy                    1.0000000          :
          :  -> integral cutoff          0.2500000E+02      :
          :  -> integral neglect         0.1000000E-07      :
          :  -> SCF convergence          0.1000000E-05 Eh   :
          :  -> wf. convergence          0.1000000E-03 e    :
          :  Broyden damping             0.4000000          :
          :  net charge                          0          :
          :  unpaired electrons                  0          :
          ...................................................

 iter      E             dE          RMSdq      gap      omega  full diag
   1    -42.6665427 -0.426665E+02  0.403E-05    3.42       0.0  T
   2    -42.6665427 -0.868994E-11  0.228E-05    3.42     895.3  T
   3    -42.6665427 -0.704858E-11  0.145E-05    3.42    1408.2  T

   *** convergence criteria satisfied after 3 iterations ***

         #    Occupation            Energy/Eh            Energy/eV
      -------------------------------------------------------------
         1        2.0000           -0.7200625             -19.5939
       ...           ...                  ...                  ...
        31        2.0000           -0.4590813             -12.4922
        32        2.0000           -0.4361716             -11.8688
        33        2.0000           -0.4282081             -11.6521
        34        2.0000           -0.4187023             -11.3935
        35        2.0000           -0.4142751             -11.2730
        36        2.0000           -0.4036885             -10.9849
        37        2.0000           -0.3888606             -10.5814 (HOMO)
        38                         -0.2630234              -7.1572 (LUMO)
        39                         -0.2188409              -5.9550
        40                         -0.2047693              -5.5721
        41                         -0.1218598              -3.3160
        42                         -0.0438573              -1.1934
       ...                                ...                  ...
        66                          0.6952462              18.9186
      -------------------------------------------------------------
                  HL-Gap            0.1258372 Eh            3.4242 eV
             Fermi-level           -0.3259420 Eh           -8.8693 eV

 SCC (total)                   0 d,  0 h,  0 min,  0.016 sec
 SCC setup                      ...        0 min,  0.000 sec (  2.508%)
 Dispersion                     ...        0 min,  0.000 sec (  0.825%)
 classical contributions        ...        0 min,  0.000 sec (  0.280%)
 integral evaluation            ...        0 min,  0.004 sec ( 26.598%)
 iterations                     ...        0 min,  0.005 sec ( 33.450%)
 molecular gradient             ...        0 min,  0.006 sec ( 35.108%)
 printout                       ...        0 min,  0.000 sec (  1.136%)

         :::::::::::::::::::::::::::::::::::::::::::::::::::::
         ::                     SUMMARY                     ::
         :::::::::::::::::::::::::::::::::::::::::::::::::::::
         :: total energy             -42.153937176661 Eh    ::
         :: gradient norm              0.000425256153 Eh/a0 ::
         :: HOMO-LUMO gap              3.424204720073 eV    ::
         ::.................................................::
         :: SCC energy               -42.666442936435 Eh    ::
         :: -> isotropic ES            0.083547194956 Eh    ::
         :: -> anisotropic ES          0.002975256748 Eh    ::
         :: -> anisotropic XC          0.013405981198 Eh    ::
         :: -> dispersion             -0.023331006315 Eh    ::
         :: repulsion energy           0.512505759775 Eh    ::
         :: add. restraining           0.000000000000 Eh    ::
         :: total charge              -0.000000000000 e     ::
         :::::::::::::::::::::::::::::::::::::::::::::::::::::

           -------------------------------------------------
          |                Property Printout                |
           -------------------------------------------------

    * Orbital Energies and Occupations

         #    Occupation            Energy/Eh            Energy/eV
      -------------------------------------------------------------
         1        2.0000           -0.7200625             -19.5939
       ...           ...                  ...                  ...
        25        2.0000           -0.5059152             -13.7667
        26        2.0000           -0.5042525             -13.7214
        27        2.0000           -0.5037173             -13.7068
        28        2.0000           -0.4953591             -13.4794
        29        2.0000           -0.4798507             -13.0574
        30        2.0000           -0.4742884             -12.9060
        31        2.0000           -0.4590813             -12.4922
        32        2.0000           -0.4361716             -11.8688
        33        2.0000           -0.4282081             -11.6521
        34        2.0000           -0.4187023             -11.3935
        35        2.0000           -0.4142751             -11.2730
        36        2.0000           -0.4036885             -10.9849
        37        2.0000           -0.3888606             -10.5814 (HOMO)
        38                         -0.2630234              -7.1572 (LUMO)
        39                         -0.2188409              -5.9550
        40                         -0.2047693              -5.5721
        41                         -0.1218598              -3.3160
        42                         -0.0438573              -1.1934
        43                          0.0013451               0.0366
        44                          0.0235525               0.6409
        45                          0.0862225               2.3462
        46                          0.0949856               2.5847
        47                          0.1178828               3.2078
        48                          0.1289030               3.5076
       ...                                ...                  ...
        66                          0.6952462              18.9186
      -------------------------------------------------------------
                  HL-Gap            0.1258372 Eh            3.4242 eV
             Fermi-level           -0.3259420 Eh           -8.8693 eV

     #   Z          covCN         q      C6AA      α(0)
     1   6          3.689    -0.055    21.754     6.675
     2   7          2.837     0.002    21.217     6.841
     3   6          3.204     0.088    25.488     8.224
     4   7          1.896    -0.283    28.193     7.872
     5   6          3.196     0.123    24.827     8.123
     6   6          3.121    -0.040    28.819     8.792
     7   6          2.764     0.264    22.553     7.777
     8   8          0.858    -0.436    22.409     6.347
     9   7          2.750    -0.117    23.549     7.207
    10   6          3.709    -0.042    21.460     6.621
    11   6          2.730     0.314    21.668     7.621
    12   8          0.860    -0.441    22.509     6.361
    13   7          2.741    -0.076    22.719     7.079
    14   6          3.700    -0.051    21.652     6.654
    15   1          0.925     0.066     2.132     2.283
    16   1          0.924     0.082     1.959     2.189
    17   1          0.924     0.082     1.959     2.189
    18   1          0.926     0.055     2.261     2.351
    19   1          0.925     0.090     1.878     2.143
    20   1          0.925     0.069     2.095     2.263
    21   1          0.925     0.069     2.093     2.262
    22   1          0.925     0.094     1.844     2.124
    23   1          0.925     0.072     2.068     2.249
    24   1          0.925     0.071     2.071     2.250

 Mol. C6AA /au·bohr⁶  :       6699.925666
 Mol. C8AA /au·bohr⁸  :     153302.180525
 Mol. α(0) /au        :        124.498091


Wiberg/Mayer (AO) data.
largest (>0.10) Wiberg bond orders for each atom

 ---------------------------------------------------------------------------
     #   Z sym  total        # sym  WBO       # sym  WBO       # sym  WBO
 ---------------------------------------------------------------------------
     1   6      3.959 --     2      1.000    15      0.981    17      0.970
                            16      0.970
     2   7      3.652 --     3      1.305     6      1.149     1      1.000
                             4      0.108
     3   6      3.955 --     4      1.477     2      1.305    18      0.962
     4   7      3.008 --     3      1.477     5      1.286     2      0.108
     5   6      3.967 --     6      1.347     4      1.286    13      1.142
     6   6      3.936 --     5      1.347     2      1.149     7      1.110
     7   6      3.960 --     8      1.646     6      1.110     9      1.096
     8   8      2.004 --     7      1.646     9      0.147
     9   7      3.545 --    11      1.108     7      1.096    10      0.981
                             8      0.147    12      0.130
    10   6      3.948 --     9      0.981    21      0.975    20      0.975
                            19      0.973
    11   6      3.961 --    12      1.632    13      1.124     9      1.108
    12   8      1.990 --    11      1.632    13      0.140     9      0.130
    13   7      3.563 --     5      1.142    11      1.124    14      0.982
                            12      0.140
    14   6      3.947 --    13      0.982    23      0.975    24      0.975
                            22      0.974
    15   1      0.995 --     1      0.981
    16   1      0.993 --     1      0.970
    17   1      0.993 --     1      0.970
    18   1      0.996 --     3      0.962
    19   1      0.991 --    10      0.973
    20   1      0.994 --    10      0.975
    21   1      0.994 --    10      0.975
    22   1      0.991 --    14      0.974
    23   1      0.993 --    14      0.975
    24   1      0.993 --    14      0.975
 ---------------------------------------------------------------------------

Topologies differ in total number of bonds
Writing topology from bond orders to xtbtopo.mol

molecular dipole:
                 x           y           z       tot (Debye)
 q only:       -1.272       0.512      -0.002
   full:       -1.566       0.320      -0.002       4.063
molecular quadrupole (traceless):
                xx          xy          yy          xz          yz          zz
 q only:        4.114       0.222      -2.654      -0.044       0.029      -1.460
  q+dip:        4.539      -0.455      -7.656      -0.052       0.066       3.117
   full:        3.842      -0.237      -8.361      -0.054       0.077       4.519

           -------------------------------------------------
          |                Geometry Summary                 |
           -------------------------------------------------

      molecular mass/u    :      194.1909174
   center of mass at/Å    :       -0.0102795      -0.0111245       0.0114508
  moments of inertia/u·Å² :        0.4709515E+03   0.7053019E+03   0.1166794E+04
rotational constants/cm⁻¹ :        0.3579484E-01   0.2390130E-01   0.1444783E-01

 * 25 selected distances

     #   Z          #   Z                                           value/Å
     1   6          2   7                                         1.4344411
     2   7          3   6                                         1.3441043
     3   6          4   7                                         1.3163535
     4   7          5   6                                         1.3510650
     2   7          6   6                                         1.3758400
     5   6          6   6                                         1.3873869
     6   6          7   6                                         1.4312447
     7   6          8   8                                         1.2162894
     7   6          9   7                                         1.3980529
Note: The following floating-point exceptions are signalling: IEEE_UNDERFLOW_FLAG
normal termination of xtb
     9   7         10   6                                         1.4540702 (max)
     9   7         11   6                                         1.3895659
    11   6         12   8                                         1.2114552
     5   6         13   7                                         1.3590807
    11   6         13   7                                         1.3794305
    13   7         14   6                                         1.4463585
     1   6         15   1                                         1.0883420
     1   6         16   1                                         1.0909626
     1   6         17   1                                         1.0909577
     3   6         18   1                                         1.0718318 (min)
    10   6         19   1                                         1.0874718
    10   6         20   1                                         1.0896051
    10   6         21   1                                         1.0895772
    14   6         22   1                                         1.0879810
    14   6         23   1                                         1.0896437
    14   6         24   1                                         1.0897223

 * 4 distinct bonds (by element types)

   Z      Z             #   av. dist./Å        max./Å        min./Å
   1 H    6 C          10     1.0876095     1.0909626     1.0718318
   6 C    6 C           2     1.4093158     1.4312447     1.3873869
   6 C    7 N          11     1.3862148     1.4540702     1.3163535
   6 C    8 O           2     1.2138723     1.2162894     1.2114552


optimized geometry written to: xtbopt.xyz


           -------------------------------------------------
          | TOTAL ENERGY              -42.153937176661 Eh   |
          | GRADIENT NORM               0.000425256153 Eh/α |
          | HOMO-LUMO GAP               3.424204720073 eV   |
           -------------------------------------------------

------------------------------------------------------------------------
 * finished run on 2026/08/28 at 19:10:04.163     
------------------------------------------------------------------------
 total:
 * wall-time:     0 d,  0 h,  0 min,  0.277 sec
 *  cpu-time:     0 d,  0 h,  0 min,  0.234 sec
 * ratio c/w:     0.845 speedup
 SCF:
 * wall-time:     0 d,  0 h,  0 min,  0.051 sec
 *  cpu-time:     0 d,  0 h,  0 min,  0.041 sec
 * ratio c/w:     0.801 speedup
 ANC optimizer:
 * wall-time:     0 d,  0 h,  0 min,  0.213 sec
 *  cpu-time:     0 d,  0 h,  0 min,  0.185 sec
 * ratio c/w:     0.869 speedup

