      -----------------------------------------------------------      
     |                   =====================                   |     
     |                           x T B                           |     
     |                   =====================                   |     
     |                         S. Grimme                         |     
     |          Mulliken Center for Theoretical Chemistry        |     
     |                    University of Bonn                     |     
      -----------------------------------------------------------      

   * xtb version 6.7.1 (unknown) compiled by 'root@buildkitsandbox' on 2026-08-28

   xtb is free software: you can redistribute it and/or modify it under
   the terms of the GNU Lesser General Public License as published by
   the Free Software Foundation, either version 3 of the License, or
   (at your option) any later version.
   
   xtb is distributed in the hope that it will be useful,
   but WITHOUT ANY WARRANTY; without even the implied warranty of
   MERCHANTABILITY or FITNESS FOR A PARTICULAR PURPOSE.  See the
   GNU Lesser General Public License for more details.
   
   Cite this work as:
   * C. Bannwarth, E. Caldeweyher, S. Ehlert, A. Hansen, P. Pracht,
     J. Seibert, S. Spicher, S. Grimme, WIREs Comput. Mol. Sci., 2020, 11,
     e01493. DOI: 10.1002/wcms.1493
   
   for GFN2-xTB:
   * C. Bannwarth, S. Ehlert and S. Grimme., J. Chem. Theory Comput., 2019,
     15, 1652-1671. DOI: 10.1021/acs.jctc.8b01176
   for GFN1-xTB:
   * S. Grimme, C. Bannwarth, P. Shushkov, J. Chem. Theory Comput., 2017,
     13, 1989-2009. DOI: 10.1021/acs.jctc.7b00118
   for GFN0-xTB:
   * P. Pracht, E. Caldeweyher, S. Ehlert, S. Grimme, ChemRxiv, 2019, preprint.
     DOI: 10.26434/chemrxiv.8326202.v1
   for GFN-FF:
   * S. Spicher and S. Grimme, Angew. Chem. Int. Ed., 2020, 59, 15665-15673.
     DOI: 10.1002/anie.202004239
   
   for ALPB and GBSA implicit solvation:
   * S. Ehlert, M. Stahn, S. Spicher, S. Grimme, J. Chem. Theory Comput.,
     2021, 17, 4250-4261. DOI: 10.1021/acs.jctc.1c00471
   
   for ddCOSMO and CPCM-X implicit solvation:
   * M. Stahn, S. Ehlert, S. Grimme, J. Phys. Chem. A,
     2023, XX, XXXX-XXXX. DOI: 10.1021/acs.jpca.3c04382
   
   for DFT-D4:
   * E. Caldeweyher, C. Bannwarth and S. Grimme, J. Chem. Phys., 2017,
     147, 034112. DOI: 10.1063/1.4993215
   * E. Caldeweyher, S. Ehlert, A. Hansen, H. Neugebauer, S. Spicher,
     C. Bannwarth and S. Grimme, J. Chem. Phys., 2019, 150, 154122.
     DOI: 10.1063/1.5090222
   * E. Caldeweyher, J.-M. Mewes, S. Ehlert and S. Grimme, Phys. Chem. Chem. Phys.
     2020, 22, 8499-8512. DOI: 10.1039/D0CP00502A
   
   for sTDA-xTB:
   * S. Grimme and C. Bannwarth, J. Chem. Phys., 2016, 145, 054103.
     DOI: 10.1063/1.4959605
   
   in the mass-spec context:
   * V. Asgeirsson, C. Bauer and S. Grimme, Chem. Sci., 2017, 8, 4879.
     DOI: 10.1039/c7sc00601b
   * J. Koopman and S. Grimme, ACS Omega 2019, 4, 12, 15120-15133.
     DOI: 10.1021/acsomega.9b02011
   
   for metadynamics refer to:
   * S. Grimme, J. Chem. Theory Comput., 2019, 155, 2847-2862
     DOI: 10.1021/acs.jctc.9b00143
   
   for SPH calculations refer to:
   * S. Spicher and S. Grimme, J. Chem. Theory Comput., 2021, 17, 1701-1714
     DOI: 10.1021/acs.jctc.0c01306
   
   for ONIOM refer to:
   * C. Plett, A. Katbashev, S. Ehlert, S. Grimme, M. Bursch,
     Phys. Chem. Chem. Phys., 2023, 25, 17860-17868. DOI: 10.1039/D3CP02178E
   
   for DIPRO refer to:
   * J. Kohn, N. Gildemeister, S. Grimme, D. Fazzi, A. Hansen,
     J. Chem. Phys. 159, 144106 (2023). DOI: 10.1063/5.0167484
   
   for PTB refer to:
   * S. Grimme, M. Mueller, A. Hansen, J. Chem. Phys., 2023, 158, 124111.
     DOI: 10.1063/5.0137838
   
   with help from (in alphabetical order)
   P. Atkinson, C. Bannwarth, F. Bohle, G. Brandenburg, E. Caldeweyher,
   M. Checinski, S. Dohm, S. Ehlert, S. Ehrlich, M. Friede, T. Froitzheim,
   I. Gerasimov, C. Hölzer, A. Katbashev, J. Kohn, J. Koopman, C. Lavigne,
   S. Lehtola, F. März, M. Müller, F. Musil, H. Neugebauer, J. Pisarek,
   C. Plett, P. Pracht, F. Pultar, J. Seibert, P. Shushkov, S. Spicher,
   M. Stahn, M. Steiner, T. Strunk, J. Stückrath, T. Rose, and J. Unsleber
   
 * started run on 2026/08/28 at 19:09:41.240     
   ID    Z sym.   atoms
    1    6 C      1, 3, 5-7, 10, 11, 14
    2    7 N      2, 4, 9, 13
    3    8 O      8, 12
    4    1 H      15-24

           -------------------------------------------------
          |                Calculation Setup                |
           -------------------------------------------------

          program call               : xtb in.xyz --gfn 2 --grad --norestart
          hostname                   : 756d39058c4f
          coordinate file            : in.xyz
          random seed                :            1562958283


           -------------------------------------------------
          |                 G F N 2 - x T B                 |
           -------------------------------------------------

        Reference                      10.1021/acs.jctc.8b01176
      * Hamiltonian:
        H0-scaling (s, p, d)           1.850000    2.230000    2.230000
        zeta-weighting                 0.500000
      * Dispersion:
        s8                             2.700000
        a1                             0.520000
        a2                             5.000000
        s9                             5.000000
      * Repulsion:
        kExp                           1.500000    1.000000
        rExp                           1.000000
      * Coulomb:
        alpha                          2.000000
        third order                    shell-resolved
        anisotropic                    true
        a3                             3.000000
        a5                             4.000000
        cn-shift                       1.200000
        cn-exp                         4.000000
        max-rad                        5.000000


          ...................................................
          :                      SETUP                      :
          :.................................................:
          :  # basis functions                  66          :
          :  # atomic orbitals                  66          :
          :  # shells                           38          :
          :  # electrons                        74          :
          :  max. iterations                   250          :
          :  Hamiltonian                  GFN2-xTB          :
          :  restarted?                      false          :
          :  GBSA solvation                  false          :
          :  PC potential                    false          :
          :  electronic temp.          300.0000000     K    :
          :  accuracy                    1.0000000          :
          :  -> integral cutoff          0.2500000E+02      :
          :  -> integral neglect         0.1000000E-07      :
          :  -> SCF convergence          0.1000000E-05 Eh   :
          :  -> wf. convergence          0.1000000E-03 e    :
          :  Broyden damping             0.4000000          :
          :  net charge                          0          :
          :  unpaired electrons                  0          :
          ...................................................

 iter      E             dE          RMSdq      gap      omega  full diag
   1    -42.4881680 -0.424882E+02  0.433E+00    3.35       0.0  T
   2    -42.6309566 -0.142789E+00  0.256E+00    3.37       1.0  T
   3    -42.6384791 -0.752243E-02  0.142E+00    3.40       1.0  T
   4    -42.6379499  0.529171E-03  0.297E-01    3.33       1.0  T
   5    -42.6396496 -0.169973E-02  0.883E-02    3.35       1.0  T
   6    -42.6396761 -0.264323E-04  0.492E-02    3.36       1.0  T
   7    -42.6396898 -0.137127E-04  0.216E-02    3.36       1.0  T
   8    -42.6396915 -0.169653E-05  0.615E-03    3.36       3.3  T
   9    -42.6396916 -0.147503E-06  0.304E-03    3.36       6.7  T
  10    -42.6396917 -0.493629E-07  0.107E-03    3.36      19.1  T
  11    -42.6396917 -0.114215E-07  0.464E-04    3.36      44.0  T
  12    -42.6396917 -0.845681E-09  0.166E-04    3.36     122.6  T

   *** convergence criteria satisfied after 12 iterations ***

         #    Occupation            Energy/Eh            Energy/eV
      -------------------------------------------------------------
         1        2.0000           -0.7201503             -19.5963
       ...           ...                  ...                  ...
        31        2.0000           -0.4564367             -12.4203
        32        2.0000           -0.4379824             -11.9181
        33        2.0000           -0.4264755             -11.6050
        34        2.0000           -0.4193249             -11.4104
        35        2.0000           -0.4148235             -11.2879
        36        2.0000           -0.4035577             -10.9814
        37        2.0000           -0.3892624             -10.5924 (HOMO)
        38                         -0.2657312              -7.2309 (LUMO)
        39                         -0.2266307              -6.1669
        40                         -0.2097716              -5.7082
        41                         -0.1226125              -3.3365
        42                         -0.0560966              -1.5265
       ...                                ...                  ...
        66                          0.6585710              17.9206
      -------------------------------------------------------------
                  HL-Gap            0.1235312 Eh            3.3615 eV
             Fermi-level           -0.3274968 Eh           -8.9116 eV

 SCC (total)                   0 d,  0 h,  0 min,  0.086 sec
 SCC setup                      ...        0 min,  0.000 sec (  0.082%)
 Dispersion                     ...        0 min,  0.000 sec (  0.106%)
 classical contributions        ...        0 min,  0.000 sec (  0.019%)
 integral evaluation            ...        0 min,  0.020 sec ( 22.997%)
 iterations                     ...        0 min,  0.050 sec ( 58.273%)
 molecular gradient             ...        0 min,  0.016 sec ( 18.250%)
 printout                       ...        0 min,  0.000 sec (  0.252%)

         :::::::::::::::::::::::::::::::::::::::::::::::::::::
         ::                     SUMMARY                     ::
         :::::::::::::::::::::::::::::::::::::::::::::::::::::
         :: total energy             -42.147427514974 Eh    ::
         :: gradient norm              0.075396043098 Eh/a0 ::
         :: HOMO-LUMO gap              3.361456240305 eV    ::
         ::.................................................::
         :: SCC energy               -42.639595239373 Eh    ::
         :: -> isotropic ES            0.084228401959 Eh    ::
         :: -> anisotropic ES          0.003858519239 Eh    ::
         :: -> anisotropic XC          0.014371058463 Eh    ::
         :: -> dispersion             -0.023256557516 Eh    ::
         :: repulsion energy           0.492167724399 Eh    ::
         :: add. restraining           0.000000000000 Eh    ::
         :: total charge              -0.000000000000 e     ::
         :::::::::::::::::::::::::::::::::::::::::::::::::::::

           -------------------------------------------------
          |                Property Printout                |
           -------------------------------------------------

    * Orbital Energies and Occupations

         #    Occupation            Energy/Eh            Energy/eV
      -------------------------------------------------------------
         1        2.0000           -0.7201503             -19.5963
       ...           ...                  ...                  ...
        25        2.0000           -0.5049932             -13.7416
        26        2.0000           -0.5041987             -13.7199
        27        2.0000           -0.5030126             -13.6877
        28        2.0000           -0.4962780             -13.5044
        29        2.0000           -0.4793096             -13.0427
        30        2.0000           -0.4764002             -12.9635
        31        2.0000           -0.4564367             -12.4203
        32        2.0000           -0.4379824             -11.9181
        33        2.0000           -0.4264755             -11.6050
        34        2.0000           -0.4193249             -11.4104
        35        2.0000           -0.4148235             -11.2879
        36        2.0000           -0.4035577             -10.9814
        37        2.0000           -0.3892624             -10.5924 (HOMO)
        38                         -0.2657312              -7.2309 (LUMO)
        39                         -0.2266307              -6.1669
        40                         -0.2097716              -5.7082
        41                         -0.1226125              -3.3365
        42                         -0.0560966              -1.5265
        43                         -0.0080932              -0.2202
        44                          0.0133696               0.3638
        45                          0.0716843               1.9506
        46                          0.0894790               2.4348
        47                          0.1099298               2.9913
        48                          0.1153533               3.1389
       ...                                ...                  ...
        66                          0.6585710              17.9206
      -------------------------------------------------------------
                  HL-Gap            0.1235312 Eh            3.3615 eV
             Fermi-level           -0.3274968 Eh           -8.9116 eV

     #   Z          covCN         q      C6AA      α(0)
     1   6          3.687    -0.054    21.754     6.676
     2   7          2.868    -0.005    21.346     6.862
     3   6          3.151     0.084    25.862     8.318
     4   7          1.893    -0.279    28.082     7.856
     5   6          3.205     0.119    24.836     8.117
     6   6          3.079    -0.026    28.567     8.763
     7   6          2.767     0.261    22.601     7.786
     8   8          0.858    -0.441    22.512     6.361
     9   7          2.743    -0.108    23.364     7.179
    10   6          3.700    -0.037    21.406     6.617
    11   6          2.714     0.304    21.835     7.649
    12   8          0.857    -0.441    22.511     6.361
    13   7          2.738    -0.074    22.686     7.074
    14   6          3.694    -0.048    21.615     6.652
    15   1          0.924     0.065     2.146     2.291
    16   1          0.924     0.083     1.950     2.184
    17   1          0.924     0.083     1.950     2.184
    18   1          0.925     0.057     2.235     2.338
    19   1          0.924     0.086     1.919     2.166
    20   1          0.924     0.069     2.096     2.264
    21   1          0.924     0.069     2.094     2.263
    22   1          0.924     0.090     1.877     2.143
    23   1          0.924     0.072     2.066     2.248
    24   1          0.924     0.072     2.069     2.249

 Mol. C6AA /au·bohr⁶  :       6705.629229
 Mol. C8AA /au·bohr⁸  :     153427.128209
 Mol. α(0) /au        :        124.599448


Wiberg/Mayer (AO) data.
largest (>0.10) Wiberg bond orders for each atom

 ---------------------------------------------------------------------------
     #   Z sym  total        # sym  WBO       # sym  WBO       # sym  WBO
 ---------------------------------------------------------------------------
     1   6      3.959 --     2      0.997    15      0.981    17      0.971
                            16      0.970
     2   7      3.643 --     3      1.282     6      1.162     1      0.997
                             4      0.109
     3   6      3.951 --     4      1.497     2      1.282    18      0.963
     4   7      3.009 --     3      1.497     5      1.273     2      0.109
     5   6      3.966 --     6      1.367     4      1.273    13      1.126
     6   6      3.946 --     5      1.367     2      1.162     7      1.110
     7   6      3.962 --     8      1.635     6      1.110     9      1.108
     8   8      1.988 --     7      1.635     9      0.149
     9   7      3.548 --     7      1.108    11      1.096    10      0.986
                             8      0.149    12      0.127
    10   6      3.950 --     9      0.986    19      0.976    21      0.974
Note: The following floating-point exceptions are signalling: IEEE_UNDERFLOW_FLAG
normal termination of xtb
                            20      0.974
    11   6      3.960 --    12      1.630    13      1.133     9      1.096
    12   8      1.983 --    11      1.630    13      0.144     9      0.127
    13   7      3.558 --    11      1.133     5      1.126    14      0.984
                            12      0.144
    14   6      3.948 --    13      0.984    22      0.976    23      0.975
                            24      0.975
    15   1      0.995 --     1      0.981
    16   1      0.993 --     1      0.970
    17   1      0.993 --     1      0.971
    18   1      0.996 --     3      0.963
    19   1      0.992 --    10      0.976
    20   1      0.994 --    10      0.974
    21   1      0.994 --    10      0.974
    22   1      0.991 --    14      0.976
    23   1      0.993 --    14      0.975
    24   1      0.993 --    14      0.975
 ---------------------------------------------------------------------------

Topologies differ in total number of bonds
Writing topology from bond orders to xtbtopo.mol

molecular dipole:
                 x           y           z       tot (Debye)
 q only:       -1.245       0.509      -0.003
   full:       -1.506       0.299      -0.002       3.902
molecular quadrupole (traceless):
                xx          xy          yy          xz          yz          zz
 q only:        3.370      -0.683      -2.022      -0.037       0.033      -1.348
  q+dip:        3.920      -1.673      -6.916      -0.040       0.074       2.996
   full:        3.128      -1.443      -7.584      -0.042       0.083       4.456


           -------------------------------------------------
          | TOTAL ENERGY              -42.147427514974 Eh   |
          | GRADIENT NORM               0.075396043098 Eh/α |
          | HOMO-LUMO GAP               3.361456240305 eV   |
           -------------------------------------------------

------------------------------------------------------------------------
 * finished run on 2026/08/28 at 19:09:41.358     
------------------------------------------------------------------------
 total:
 * wall-time:     0 d,  0 h,  0 min,  0.118 sec
 *  cpu-time:     0 d,  0 h,  0 min,  0.061 sec
 * ratio c/w:     0.520 speedup
 SCF:
 * wall-time:     0 d,  0 h,  0 min,  0.086 sec
 *  cpu-time:     0 d,  0 h,  0 min,  0.050 sec
 * ratio c/w:     0.583 speedup

