      -----------------------------------------------------------      
     |                   =====================                   |     
     |                           x T B                           |     
     |                   =====================                   |     
     |                         S. Grimme                         |     
     |          Mulliken Center for Theoretical Chemistry        |     
     |                    University of Bonn                     |     
      -----------------------------------------------------------      

   * xtb version 6.7.1 (unknown) compiled by 'root@buildkitsandbox' on 2026-08-28

   xtb is free software: you can redistribute it and/or modify it under
   the terms of the GNU Lesser General Public License as published by
   the Free Software Foundation, either version 3 of the License, or
   (at your option) any later version.
   
   xtb is distributed in the hope that it will be useful,
   but WITHOUT ANY WARRANTY; without even the implied warranty of
   MERCHANTABILITY or FITNESS FOR A PARTICULAR PURPOSE.  See the
   GNU Lesser General Public License for more details.
   
   Cite this work as:
   * C. Bannwarth, E. Caldeweyher, S. Ehlert, A. Hansen, P. Pracht,
     J. Seibert, S. Spicher, S. Grimme, WIREs Comput. Mol. Sci., 2020, 11,
     e01493. DOI: 10.1002/wcms.1493
   
   for GFN2-xTB:
   * C. Bannwarth, S. Ehlert and S. Grimme., J. Chem. Theory Comput., 2019,
     15, 1652-1671. DOI: 10.1021/acs.jctc.8b01176
   for GFN1-xTB:
   * S. Grimme, C. Bannwarth, P. Shushkov, J. Chem. Theory Comput., 2017,
     13, 1989-2009. DOI: 10.1021/acs.jctc.7b00118
   for GFN0-xTB:
   * P. Pracht, E. Caldeweyher, S. Ehlert, S. Grimme, ChemRxiv, 2019, preprint.
     DOI: 10.26434/chemrxiv.8326202.v1
   for GFN-FF:
   * S. Spicher and S. Grimme, Angew. Chem. Int. Ed., 2020, 59, 15665-15673.
     DOI: 10.1002/anie.202004239
   
   for ALPB and GBSA implicit solvation:
   * S. Ehlert, M. Stahn, S. Spicher, S. Grimme, J. Chem. Theory Comput.,
     2021, 17, 4250-4261. DOI: 10.1021/acs.jctc.1c00471
   
   for ddCOSMO and CPCM-X implicit solvation:
   * M. Stahn, S. Ehlert, S. Grimme, J. Phys. Chem. A,
     2023, XX, XXXX-XXXX. DOI: 10.1021/acs.jpca.3c04382
   
   for DFT-D4:
   * E. Caldeweyher, C. Bannwarth and S. Grimme, J. Chem. Phys., 2017,
     147, 034112. DOI: 10.1063/1.4993215
   * E. Caldeweyher, S. Ehlert, A. Hansen, H. Neugebauer, S. Spicher,
     C. Bannwarth and S. Grimme, J. Chem. Phys., 2019, 150, 154122.
     DOI: 10.1063/1.5090222
   * E. Caldeweyher, J.-M. Mewes, S. Ehlert and S. Grimme, Phys. Chem. Chem. Phys.
     2020, 22, 8499-8512. DOI: 10.1039/D0CP00502A
   
   for sTDA-xTB:
   * S. Grimme and C. Bannwarth, J. Chem. Phys., 2016, 145, 054103.
     DOI: 10.1063/1.4959605
   
   in the mass-spec context:
   * V. Asgeirsson, C. Bauer and S. Grimme, Chem. Sci., 2017, 8, 4879.
     DOI: 10.1039/c7sc00601b
   * J. Koopman and S. Grimme, ACS Omega 2019, 4, 12, 15120-15133.
     DOI: 10.1021/acsomega.9b02011
   
   for metadynamics refer to:
   * S. Grimme, J. Chem. Theory Comput., 2019, 155, 2847-2862
     DOI: 10.1021/acs.jctc.9b00143
   
   for SPH calculations refer to:
   * S. Spicher and S. Grimme, J. Chem. Theory Comput., 2021, 17, 1701-1714
     DOI: 10.1021/acs.jctc.0c01306
   
   for ONIOM refer to:
   * C. Plett, A. Katbashev, S. Ehlert, S. Grimme, M. Bursch,
     Phys. Chem. Chem. Phys., 2023, 25, 17860-17868. DOI: 10.1039/D3CP02178E
   
   for DIPRO refer to:
   * J. Kohn, N. Gildemeister, S. Grimme, D. Fazzi, A. Hansen,
     J. Chem. Phys. 159, 144106 (2023). DOI: 10.1063/5.0167484
   
   for PTB refer to:
   * S. Grimme, M. Mueller, A. Hansen, J. Chem. Phys., 2023, 158, 124111.
     DOI: 10.1063/5.0137838
   
   with help from (in alphabetical order)
   P. Atkinson, C. Bannwarth, F. Bohle, G. Brandenburg, E. Caldeweyher,
   M. Checinski, S. Dohm, S. Ehlert, S. Ehrlich, M. Friede, T. Froitzheim,
   I. Gerasimov, C. Hölzer, A. Katbashev, J. Kohn, J. Koopman, C. Lavigne,
   S. Lehtola, F. März, M. Müller, F. Musil, H. Neugebauer, J. Pisarek,
   C. Plett, P. Pracht, F. Pultar, J. Seibert, P. Shushkov, S. Spicher,
   M. Stahn, M. Steiner, T. Strunk, J. Stückrath, T. Rose, and J. Unsleber
   
 * started run on 2026/08/28 at 19:09:54.590     
   ID    Z sym.   atoms
    1    6 C      1-18, 20-28
    2    8 O      19
    3    1 H      29-74

           -------------------------------------------------
          |                Calculation Setup                |
           -------------------------------------------------

          program call               : xtb in.xyz --gfn 2 --grad --norestart
          hostname                   : 756d39058c4f
          coordinate file            : in.xyz
          random seed                :            1628790246


           -------------------------------------------------
          |                 G F N 2 - x T B                 |
           -------------------------------------------------

        Reference                      10.1021/acs.jctc.8b01176
      * Hamiltonian:
        H0-scaling (s, p, d)           1.850000    2.230000    2.230000
        zeta-weighting                 0.500000
      * Dispersion:
        s8                             2.700000
        a1                             0.520000
        a2                             5.000000
        s9                             5.000000
      * Repulsion:
        kExp                           1.500000    1.000000
        rExp                           1.000000
      * Coulomb:
        alpha                          2.000000
        third order                    shell-resolved
        anisotropic                    true
        a3                             3.000000
        a5                             4.000000
        cn-shift                       1.200000
        cn-exp                         4.000000
        max-rad                        5.000000


          ...................................................
          :                      SETUP                      :
          :.................................................:
          :  # basis functions                 158          :
          :  # atomic orbitals                 158          :
          :  # shells                          102          :
          :  # electrons                       160          :
          :  max. iterations                   250          :
          :  Hamiltonian                  GFN2-xTB          :
          :  restarted?                      false          :
          :  GBSA solvation                  false          :
          :  PC potential                    false          :
          :  electronic temp.          300.0000000     K    :
          :  accuracy                    1.0000000          :
          :  -> integral cutoff          0.2500000E+02      :
          :  -> integral neglect         0.1000000E-07      :
          :  -> SCF convergence          0.1000000E-05 Eh   :
          :  -> wf. convergence          0.1000000E-03 e    :
          :  Broyden damping             0.4000000          :
          :  net charge                          0          :
          :  unpaired electrons                  0          :
          ...................................................

 iter      E             dE          RMSdq      gap      omega  full diag
   1    -86.4368744 -0.864369E+02  0.271E+00    4.93       0.0  T
   2    -86.5760340 -0.139160E+00  0.154E+00    4.88       1.0  T
   3    -86.5778884 -0.185438E-02  0.693E-01    4.84       1.0  T
   4    -86.5743162  0.357219E-02  0.334E-01    4.86       1.0  T
   5    -86.5803122 -0.599593E-02  0.830E-02    4.85       1.0  T
   6    -86.5804690 -0.156811E-03  0.433E-02    4.85       1.0  T
   7    -86.5804809 -0.118899E-04  0.679E-03    4.85       1.7  T
   8    -86.5804821 -0.122444E-05  0.233E-03    4.85       5.0  T
   9    -86.5804821 -0.503327E-07  0.101E-03    4.85      11.6  T
  10    -86.5804821 -0.954155E-08  0.279E-04    4.85      41.7  T
  11    -86.5804821 -0.432166E-09  0.942E-05    4.85     123.4  T

   *** convergence criteria satisfied after 11 iterations ***

         #    Occupation            Energy/Eh            Energy/eV
      -------------------------------------------------------------
         1        2.0000           -0.6797247             -18.4963
       ...           ...                  ...                  ...
        74        2.0000           -0.4101932             -11.1619
        75        2.0000           -0.4068166             -11.0700
        76        2.0000           -0.4044182             -11.0048
        77        2.0000           -0.4042605             -11.0005
        78        2.0000           -0.3943254             -10.7301
        79        2.0000           -0.3892785             -10.5928
        80        2.0000           -0.3727622             -10.1434 (HOMO)
        81                         -0.1945697              -5.2945 (LUMO)
        82                         -0.0055112              -0.1500
        83                          0.0105425               0.2869
        84                          0.0210642               0.5732
        85                          0.0355631               0.9677
       ...                                ...                  ...
       158                          0.5977366              16.2652
      -------------------------------------------------------------
                  HL-Gap            0.1781925 Eh            4.8489 eV
             Fermi-level           -0.2836660 Eh           -7.7189 eV

 SCC (total)                   0 d,  0 h,  0 min,  0.233 sec
 SCC setup                      ...        0 min,  0.000 sec (  0.102%)
 Dispersion                     ...        0 min,  0.001 sec (  0.255%)
 classical contributions        ...        0 min,  0.000 sec (  0.063%)
 integral evaluation            ...        0 min,  0.020 sec (  8.608%)
 iterations                     ...        0 min,  0.165 sec ( 71.050%)
 molecular gradient             ...        0 min,  0.045 sec ( 19.133%)
 printout                       ...        0 min,  0.002 sec (  0.783%)

         :::::::::::::::::::::::::::::::::::::::::::::::::::::
         ::                     SUMMARY                     ::
         :::::::::::::::::::::::::::::::::::::::::::::::::::::
         :: total energy             -85.422326891005 Eh    ::
         :: gradient norm              0.047382912049 Eh/a0 ::
         :: HOMO-LUMO gap              4.848865929237 eV    ::
         ::.................................................::
         :: SCC energy               -86.579604518911 Eh    ::
         :: -> isotropic ES            0.036448750333 Eh    ::
         :: -> anisotropic ES          0.024241535257 Eh    ::
         :: -> anisotropic XC          0.041549662987 Eh    ::
         :: -> dispersion             -0.077156144963 Eh    ::
         :: repulsion energy           1.157277627907 Eh    ::
         :: add. restraining           0.000000000000 Eh    ::
         :: total charge              -0.000000000000 e     ::
         :::::::::::::::::::::::::::::::::::::::::::::::::::::

           -------------------------------------------------
          |                Property Printout                |
           -------------------------------------------------

    * Orbital Energies and Occupations

         #    Occupation            Energy/Eh            Energy/eV
      -------------------------------------------------------------
         1        2.0000           -0.6797247             -18.4963
       ...           ...                  ...                  ...
        68        2.0000           -0.4242258             -11.5438
        69        2.0000           -0.4232599             -11.5175
        70        2.0000           -0.4203373             -11.4380
        71        2.0000           -0.4173871             -11.3577
        72        2.0000           -0.4151257             -11.2961
        73        2.0000           -0.4118005             -11.2057
        74        2.0000           -0.4101932             -11.1619
        75        2.0000           -0.4068166             -11.0700
        76        2.0000           -0.4044182             -11.0048
        77        2.0000           -0.4042605             -11.0005
        78        2.0000           -0.3943254             -10.7301
        79        2.0000           -0.3892785             -10.5928
        80        2.0000           -0.3727622             -10.1434 (HOMO)
        81                         -0.1945697              -5.2945 (LUMO)
        82                         -0.0055112              -0.1500
        83                          0.0105425               0.2869
        84                          0.0210642               0.5732
        85                          0.0355631               0.9677
        86                          0.0388437               1.0570
        87                          0.0438003               1.1919
        88                          0.0582027               1.5838
        89                          0.0613460               1.6693
        90                          0.0711610               1.9364
        91                          0.0750417               2.0420
       ...                                ...                  ...
       158                          0.5977366              16.2652
      -------------------------------------------------------------
                  HL-Gap            0.1781925 Eh            4.8489 eV
             Fermi-level           -0.2836660 Eh           -7.7189 eV

     #   Z          covCN         q      C6AA      α(0)
     1   6          3.753    -0.104    22.540     6.770
     2   6          3.848    -0.009    20.705     6.472
     3   6          3.752    -0.103    22.520     6.767
     4   6          3.802    -0.062    21.685     6.630
     5   6          3.798    -0.057    21.597     6.617
     6   6          3.800    -0.064    21.721     6.636
     7   6          3.843    -0.017    20.846     6.495
     8   6          3.750    -0.101    22.490     6.763
     9   6          3.869    -0.031    21.091     6.530
    10   6          3.819    -0.058    21.607     6.615
    11   6          3.815    -0.056    21.577     6.611
    12   6          3.896    -0.025    20.961     6.508
    13   6          3.850    -0.022    20.925     6.506
    14   6          3.806    -0.057    21.593     6.615
    15   6          2.893    -0.054    29.348     8.882
    16   6          2.945    -0.010    28.259     8.719
    17   6          3.807    -0.071    21.853     6.655
    18   6          3.727     0.115    18.799     6.190
    19   8          1.653    -0.453    21.897     6.317
    20   6          3.801    -0.066    21.764     6.642
    21   6          3.803    -0.060    21.656     6.625
    22   6          3.891     0.014    20.289     6.403
    23   6          3.752    -0.096    22.400     6.749
    24   6          3.845    -0.028    21.047     6.526
    25   6          3.797    -0.059    21.632     6.623
    26   6          3.805    -0.059    21.633     6.621
    27   6          3.915     0.015    20.268     6.399
    28   6          3.749    -0.100    22.475     6.761
    29   1          0.924     0.032     2.560     2.502
    30   1          0.924     0.033     2.541     2.493
    31   1          0.924     0.030     2.590     2.517
    32   1          0.924     0.027     2.631     2.537
    33   1          0.924     0.034     2.537     2.491
    34   1          0.924     0.031     2.568     2.506
    35   1          0.924     0.031     2.572     2.508
    36   1          0.924     0.028     2.617     2.530
    37   1          0.923     0.030     2.583     2.513
    38   1          0.924     0.034     2.534     2.490
    39   1          0.924     0.026     2.641     2.541
    40   1          0.924     0.031     2.572     2.508
    41   1          0.924     0.028     2.621     2.532
    42   1          0.924     0.031     2.570     2.507
    43   1          0.924     0.031     2.569     2.507
    44   1          0.924     0.033     2.550     2.497
    45   1          0.924     0.031     2.569     2.507
    46   1          0.923     0.027     2.633     2.538
    47   1          0.924     0.027     2.624     2.533
    48   1          0.924     0.025     2.661     2.551
    49   1          0.924     0.026     2.643     2.542
    50   1          0.924     0.024     2.672     2.556
    51   1          0.923     0.027     2.628     2.535
    52   1          0.924     0.032     2.558     2.501
    53   1          0.924     0.036     2.500     2.473
    54   1          0.924     0.037     2.487     2.466
    55   1          0.925     0.024     2.670     2.555
    56   1          0.924     0.034     2.524     2.484
    57   1          0.924     0.040     2.442     2.444
    58   1          0.924     0.042     2.419     2.432
    59   1          0.804     0.283     0.776     1.384
    60   1          0.924     0.029     2.596     2.520
    61   1          0.924     0.036     2.496     2.471
    62   1          0.924     0.034     2.530     2.487
    63   1          0.923     0.029     2.596     2.520
    64   1          0.924     0.032     2.561     2.503
    65   1          0.924     0.032     2.552     2.498
    66   1          0.924     0.032     2.561     2.503
    67   1          0.923     0.029     2.603     2.523
    68   1          0.924     0.034     2.528     2.486
    69   1          0.924     0.026     2.643     2.542
    70   1          0.924     0.032     2.563     2.504
    71   1          0.924     0.025     2.660     2.551
    72   1          0.924     0.031     2.579     2.511
    73   1          0.924     0.035     2.511     2.478
    74   1          0.924     0.034     2.525     2.485

 Mol. C6AA /au·bohr⁶  :      41547.125069
 Mol. C8AA /au·bohr⁸  :     909262.737804
 Mol. α(0) /au        :        302.912183


Wiberg/Mayer (AO) data.
largest (>0.10) Wiberg bond orders for each atom

 ---------------------------------------------------------------------------
     #   Z sym  total        # sym  WBO       # sym  WBO       # sym  WBO
 ---------------------------------------------------------------------------
     1   6      3.996 --     2      1.008    30      0.987    31      0.987
                            29      0.986
     2   6      3.995 --     3      1.010     1      1.008     4      0.995
                            32      0.969
     3   6      3.997 --     2      1.010    33      0.987    34      0.986
                            35      0.985
     4   6      3.996 --     5      1.006     2      0.995    37      0.977
                            36      0.976
     5   6      3.996 --     6      1.006     4      1.006    39      0.978
                            38      0.972
     6   6      3.995 --     5      1.006     7      0.991    41      0.978
                            40      0.974
     7   6      3.993 --     8      1.010     6      0.991     9      0.984
                            42      0.968
     8   6      3.996 --     7      1.010    43      0.987    44      0.981
                            45      0.978
     9   6      3.989 --    10      0.988     7      0.984    46      0.969
                            27      0.969
    10   6      3.996 --    11      1.000     9      0.988    48      0.983
                            47      0.980
    11   6      3.997 --    10      1.000    12      0.997    50      0.981
                            49      0.979
    12   6      3.991 --    11      0.997    13      0.988    27      0.967
                            51      0.963
    13   6      3.994 --    14      0.992    12      0.988    24      0.983
                            52      0.961
    14   6      3.997 --    15      1.027    13      0.992    53      0.965
                            54      0.956
    15   6      3.988 --    16      1.883    14      1.027    55      0.964
    16   6      3.982 --    15      1.883    17      1.007    22      0.983
    17   6      3.995 --    16      1.007    18      0.981    57      0.972
                            56      0.958
    18   6      3.953 --    20      0.992    17      0.981    19      0.981
                            58      0.964
    19   8      1.955 --    18      0.981    59      0.901
    20   6      3.996 --    21      1.007    18      0.992    61      0.975
                            60      0.973
    21   6      3.995 --    20      1.007    22      0.976    63      0.976
                            62      0.973
    22   6      3.987 --    23      0.988    16      0.983    21      0.976
                            24      0.964
    23   6      3.996 --    22      0.988    66      0.983    65      0.981
                            64      0.981
    24   6      3.990 --    25      0.996    13      0.983    67      0.967
                            22      0.964
    25   6      3.995 --    26      1.002    24      0.996    69      0.975
                            68      0.972
    26   6      3.996 --    25      1.002    27      0.990    71      0.976
                            70      0.970
    27   6      3.986 --    28      0.999    26      0.990     9      0.969
                            12      0.967
    28   6      3.996 --    27      0.999    73      0.984    72      0.982
                            74      0.979
    29   1      0.999 --     1      0.986
    30   1      0.999 --     1      0.987
    31   1      0.999 --     1      0.987
    32   1      0.999 --     2      0.969
    33   1      0.999 --     3      0.987
    34   1      0.999 --     3      0.986
    35   1      0.999 --     3      0.985
    36   1      0.999 --     4      0.976
    37   1      0.999 --     4      0.977
    38   1      0.999 --     5      0.972
    39   1      0.999 --     5      0.978
    40   1      0.999 --     6      0.974
    41   1      0.999 --     6      0.978
    42   1      0.999 --     7      0.968
    43   1      0.999 --     8      0.987
    44   1      0.999 --     8      0.981
    45   1      0.999 --     8      0.978
    46   1      0.999 --     9      0.969
    47   1      0.999 --    10      0.980
    48   1      0.999 --    10      0.983
    49   1      0.999 --    11      0.979
    50   1      0.999 --    11      0.981
    51   1      0.999 --    12      0.963
    52   1      0.999 --    13      0.961
    53   1      0.998 --    14      0.965
    54   1      0.998 --    14      0.956
    55   1      0.998 --    15      0.964
    56   1      0.999 --    17      0.958
    57   1      0.998 --    17      0.972
    58   1      0.998 --    18      0.964
    59   1      0.920 --    19      0.901
    60   1      0.999 --    20      0.973
    61   1      0.998 --    20      0.975
    62   1      0.998 --    21      0.973
    63   1      0.999 --    21      0.976
    64   1      0.999 --    23      0.981
    65   1      0.998 --    23      0.981
    66   1      0.999 --    23      0.983
    67   1      0.999 --    24      0.967
    68   1      0.999 --    25      0.972
    69   1      0.999 --    25      0.975
    70   1      0.998 --    26      0.970
    71   1      0.999 --    26      0.976
    72   1      0.999 --    28      0.982
    73   1      0.999 --    28      0.984
    74   1      0.999 --    28      0.979
 ---------------------------------------------------------------------------

Topologies differ in total number of bonds
Writing topology from bond orders to xtbtopo.mol

molecular dipole:
                 x           y           z       tot (Debye)
 q only:       -0.409       0.125      -0.672
   full:       -0.551       0.121      -0.758       2.402
molecular quadrupole (traceless):
                xx          xy          yy          xz          yz          zz
 q only:        5.088      10.140      16.026     -26.158      14.138     -21.114
  q+dip:        8.023      13.426      19.308     -32.635      17.679     -27.331
   full:        6.320      13.484      19.665     -32.992      16.550     -25.985


           -------------------------------------------------
          | TOTAL ENERGY              -85.422326891005 Eh   |
          | GRADIENT NORM               0.047382912049 Eh/α |
          | HOMO-LUMO GAP               4.848865929237 eV   |
           -------------------------------------------------

------------------------------------------------------------------------
 * finished run on 2026/08/28 at 19:09:54.842     
------------------------------------------------------------------------
 total:
 * wall-time:     0 d,  0 h,  0 min,  0.251 sec
 *  cpu-time:     0 d,  0 h,  0 min,  0.237 sec
Note: The following floating-point exceptions are signalling: IEEE_UNDERFLOW_FLAG
normal termination of xtb
 * ratio c/w:     0.945 speedup
 SCF:
 * wall-time:     0 d,  0 h,  0 min,  0.233 sec
 *  cpu-time:     0 d,  0 h,  0 min,  0.222 sec
 * ratio c/w:     0.951 speedup

