      -----------------------------------------------------------      
     |                   =====================                   |     
     |                           x T B                           |     
     |                   =====================                   |     
     |                         S. Grimme                         |     
     |          Mulliken Center for Theoretical Chemistry        |     
     |                    University of Bonn                     |     
      -----------------------------------------------------------      

   * xtb version 6.7.1 (unknown) compiled by 'root@buildkitsandbox' on 2026-08-28

   xtb is free software: you can redistribute it and/or modify it under
   the terms of the GNU Lesser General Public License as published by
   the Free Software Foundation, either version 3 of the License, or
   (at your option) any later version.
   
   xtb is distributed in the hope that it will be useful,
   but WITHOUT ANY WARRANTY; without even the implied warranty of
   MERCHANTABILITY or FITNESS FOR A PARTICULAR PURPOSE.  See the
   GNU Lesser General Public License for more details.
   
   Cite this work as:
   * C. Bannwarth, E. Caldeweyher, S. Ehlert, A. Hansen, P. Pracht,
     J. Seibert, S. Spicher, S. Grimme, WIREs Comput. Mol. Sci., 2020, 11,
     e01493. DOI: 10.1002/wcms.1493
   
   for GFN2-xTB:
   * C. Bannwarth, S. Ehlert and S. Grimme., J. Chem. Theory Comput., 2019,
     15, 1652-1671. DOI: 10.1021/acs.jctc.8b01176
   for GFN1-xTB:
   * S. Grimme, C. Bannwarth, P. Shushkov, J. Chem. Theory Comput., 2017,
     13, 1989-2009. DOI: 10.1021/acs.jctc.7b00118
   for GFN0-xTB:
   * P. Pracht, E. Caldeweyher, S. Ehlert, S. Grimme, ChemRxiv, 2019, preprint.
     DOI: 10.26434/chemrxiv.8326202.v1
   for GFN-FF:
   * S. Spicher and S. Grimme, Angew. Chem. Int. Ed., 2020, 59, 15665-15673.
     DOI: 10.1002/anie.202004239
   
   for ALPB and GBSA implicit solvation:
   * S. Ehlert, M. Stahn, S. Spicher, S. Grimme, J. Chem. Theory Comput.,
     2021, 17, 4250-4261. DOI: 10.1021/acs.jctc.1c00471
   
   for ddCOSMO and CPCM-X implicit solvation:
   * M. Stahn, S. Ehlert, S. Grimme, J. Phys. Chem. A,
     2023, XX, XXXX-XXXX. DOI: 10.1021/acs.jpca.3c04382
   
   for DFT-D4:
   * E. Caldeweyher, C. Bannwarth and S. Grimme, J. Chem. Phys., 2017,
     147, 034112. DOI: 10.1063/1.4993215
   * E. Caldeweyher, S. Ehlert, A. Hansen, H. Neugebauer, S. Spicher,
     C. Bannwarth and S. Grimme, J. Chem. Phys., 2019, 150, 154122.
     DOI: 10.1063/1.5090222
   * E. Caldeweyher, J.-M. Mewes, S. Ehlert and S. Grimme, Phys. Chem. Chem. Phys.
     2020, 22, 8499-8512. DOI: 10.1039/D0CP00502A
   
   for sTDA-xTB:
   * S. Grimme and C. Bannwarth, J. Chem. Phys., 2016, 145, 054103.
     DOI: 10.1063/1.4959605
   
   in the mass-spec context:
   * V. Asgeirsson, C. Bauer and S. Grimme, Chem. Sci., 2017, 8, 4879.
     DOI: 10.1039/c7sc00601b
   * J. Koopman and S. Grimme, ACS Omega 2019, 4, 12, 15120-15133.
     DOI: 10.1021/acsomega.9b02011
   
   for metadynamics refer to:
   * S. Grimme, J. Chem. Theory Comput., 2019, 155, 2847-2862
     DOI: 10.1021/acs.jctc.9b00143
   
   for SPH calculations refer to:
   * S. Spicher and S. Grimme, J. Chem. Theory Comput., 2021, 17, 1701-1714
     DOI: 10.1021/acs.jctc.0c01306
   
   for ONIOM refer to:
   * C. Plett, A. Katbashev, S. Ehlert, S. Grimme, M. Bursch,
     Phys. Chem. Chem. Phys., 2023, 25, 17860-17868. DOI: 10.1039/D3CP02178E
   
   for DIPRO refer to:
   * J. Kohn, N. Gildemeister, S. Grimme, D. Fazzi, A. Hansen,
     J. Chem. Phys. 159, 144106 (2023). DOI: 10.1063/5.0167484
   
   for PTB refer to:
   * S. Grimme, M. Mueller, A. Hansen, J. Chem. Phys., 2023, 158, 124111.
     DOI: 10.1063/5.0137838
   
   with help from (in alphabetical order)
   P. Atkinson, C. Bannwarth, F. Bohle, G. Brandenburg, E. Caldeweyher,
   M. Checinski, S. Dohm, S. Ehlert, S. Ehrlich, M. Friede, T. Froitzheim,
   I. Gerasimov, C. Hölzer, A. Katbashev, J. Kohn, J. Koopman, C. Lavigne,
   S. Lehtola, F. März, M. Müller, F. Musil, H. Neugebauer, J. Pisarek,
   C. Plett, P. Pracht, F. Pultar, J. Seibert, P. Shushkov, S. Spicher,
   M. Stahn, M. Steiner, T. Strunk, J. Stückrath, T. Rose, and J. Unsleber
   
 * started run on 2026/08/28 at 19:10:49.967     
   ID    Z sym.   atoms
    1    6 C      1-18, 20-28
    2    8 O      19
    3    1 H      29-74

           -------------------------------------------------
          |                Calculation Setup                |
           -------------------------------------------------

          program call               : xtb in.xyz --gfn 2 --opt --norestart
          hostname                   : 756d39058c4f
          coordinate file            : in.xyz
          random seed                :             704367149


           -------------------------------------------------
          |                 G F N 2 - x T B                 |
           -------------------------------------------------

        Reference                      10.1021/acs.jctc.8b01176
      * Hamiltonian:
        H0-scaling (s, p, d)           1.850000    2.230000    2.230000
        zeta-weighting                 0.500000
      * Dispersion:
        s8                             2.700000
        a1                             0.520000
        a2                             5.000000
        s9                             5.000000
      * Repulsion:
        kExp                           1.500000    1.000000
        rExp                           1.000000
      * Coulomb:
        alpha                          2.000000
        third order                    shell-resolved
        anisotropic                    true
        a3                             3.000000
        a5                             4.000000
        cn-shift                       1.200000
        cn-exp                         4.000000
        max-rad                        5.000000


          ...................................................
          :                      SETUP                      :
          :.................................................:
          :  # basis functions                 158          :
          :  # atomic orbitals                 158          :
          :  # shells                          102          :
          :  # electrons                       160          :
          :  max. iterations                   250          :
          :  Hamiltonian                  GFN2-xTB          :
          :  restarted?                      false          :
          :  GBSA solvation                  false          :
          :  PC potential                    false          :
          :  electronic temp.          300.0000000     K    :
          :  accuracy                    1.0000000          :
          :  -> integral cutoff          0.2500000E+02      :
          :  -> integral neglect         0.1000000E-07      :
          :  -> SCF convergence          0.1000000E-05 Eh   :
          :  -> wf. convergence          0.1000000E-03 e    :
          :  Broyden damping             0.4000000          :
          :  net charge                          0          :
          :  unpaired electrons                  0          :
          ...................................................

 iter      E             dE          RMSdq      gap      omega  full diag
   1    -86.4368744 -0.864369E+02  0.271E+00    4.93       0.0  T
   2    -86.5760340 -0.139160E+00  0.154E+00    4.88       1.0  T
   3    -86.5778884 -0.185438E-02  0.693E-01    4.84       1.0  T
   4    -86.5743162  0.357219E-02  0.334E-01    4.86       1.0  T
   5    -86.5803122 -0.599593E-02  0.830E-02    4.85       1.0  T
   6    -86.5804690 -0.156811E-03  0.433E-02    4.85       1.0  T
   7    -86.5804809 -0.118899E-04  0.679E-03    4.85       1.7  T
   8    -86.5804821 -0.122444E-05  0.233E-03    4.85       5.0  T
   9    -86.5804821 -0.503327E-07  0.101E-03    4.85      11.6  T
  10    -86.5804821 -0.954155E-08  0.279E-04    4.85      41.7  T
  11    -86.5804821 -0.432166E-09  0.942E-05    4.85     123.4  T

   *** convergence criteria satisfied after 11 iterations ***

         #    Occupation            Energy/Eh            Energy/eV
      -------------------------------------------------------------
         1        2.0000           -0.6797247             -18.4963
       ...           ...                  ...                  ...
        74        2.0000           -0.4101932             -11.1619
        75        2.0000           -0.4068166             -11.0700
        76        2.0000           -0.4044182             -11.0048
        77        2.0000           -0.4042605             -11.0005
        78        2.0000           -0.3943254             -10.7301
        79        2.0000           -0.3892785             -10.5928
        80        2.0000           -0.3727622             -10.1434 (HOMO)
        81                         -0.1945697              -5.2945 (LUMO)
        82                         -0.0055112              -0.1500
        83                          0.0105425               0.2869
        84                          0.0210642               0.5732
        85                          0.0355631               0.9677
       ...                                ...                  ...
       158                          0.5977366              16.2652
      -------------------------------------------------------------
                  HL-Gap            0.1781925 Eh            4.8489 eV
             Fermi-level           -0.2836660 Eh           -7.7189 eV

 SCC (total)                   0 d,  0 h,  0 min,  0.257 sec
 SCC setup                      ...        0 min,  0.000 sec (  0.132%)
 Dispersion                     ...        0 min,  0.001 sec (  0.288%)
 classical contributions        ...        0 min,  0.000 sec (  0.053%)
 integral evaluation            ...        0 min,  0.009 sec (  3.584%)
 iterations                     ...        0 min,  0.178 sec ( 69.210%)
 molecular gradient             ...        0 min,  0.060 sec ( 23.203%)
 printout                       ...        0 min,  0.009 sec (  3.517%)

         :::::::::::::::::::::::::::::::::::::::::::::::::::::
         ::                     SUMMARY                     ::
         :::::::::::::::::::::::::::::::::::::::::::::::::::::
         :: total energy             -85.422326891005 Eh    ::
         :: gradient norm              0.047382912049 Eh/a0 ::
         :: HOMO-LUMO gap              4.848865929237 eV    ::
         ::.................................................::
         :: SCC energy               -86.579604518911 Eh    ::
         :: -> isotropic ES            0.036448750333 Eh    ::
         :: -> anisotropic ES          0.024241535257 Eh    ::
         :: -> anisotropic XC          0.041549662987 Eh    ::
         :: -> dispersion             -0.077156144963 Eh    ::
         :: repulsion energy           1.157277627907 Eh    ::
         :: add. restraining           0.000000000000 Eh    ::
         :: total charge              -0.000000000000 e     ::
         :::::::::::::::::::::::::::::::::::::::::::::::::::::

      ----------------------------------------------------------- 
     |                   =====================                   |
     |                        A N C O P T                        |
     |                   =====================                   |
     |               Approximate Normal Coordinate               |
     |                Rational Function Optimizer                |
      ----------------------------------------------------------- 

          ...................................................
          :                      SETUP                      :
          :.................................................:
          :   optimization level            normal          :
          :   max. optcycles                   222          :
          :   ANC micro-cycles                  20          :
          :   degrees of freedom               216          :
          :.................................................:
          :   RF solver                   davidson          :
          :   write xtbopt.log                true          :
          :   linear?                        false          :
          :   energy convergence         0.5000000E-05 Eh   :
          :   grad. convergence          0.1000000E-02 Eh/α :
          :   maximum RF displ.          1.0000000          :
          :   Hlow (freq-cutoff)         0.1000000E-01      :
          :   Hmax (freq-cutoff)         5.0000000          :
          :   S6 in model hess.         20.0000000          :
          ...................................................

generating ANC from exact Hessian ...
Using Lindh-Hessian (1995)
 Shifting diagonal of input Hessian by    9.9199039845436019E-003
 Lowest  eigenvalues of input Hessian
    0.000000    0.000000    0.000000    0.000000    0.000000    0.000000
    0.010000    0.010072    0.010382    0.010441    0.010694    0.010954
    0.011460    0.011606    0.011980    0.012950    0.013578    0.014098
 Highest eigenvalues
    1.270677    1.279750    1.297151    1.431264    1.463067    1.817686


........................................................................
.............................. CYCLE    1 ..............................
........................................................................

 iter      E             dE          RMSdq      gap      omega  full diag
   1    -86.5804821 -0.865805E+02  0.263E-05    4.85       0.0  T
   2    -86.5804821 -0.737543E-11  0.141E-05    4.85     826.5  T
   3    -86.5804821 -0.994760E-12  0.669E-06    4.85    1736.3  T
     SCC iter.                  ...        0 min,  0.060 sec
     gradient                   ...        0 min,  0.056 sec
 * total energy  :   -85.4223269 Eh     change       -0.7150902E-10 Eh
   gradient norm :     0.0473827 Eh/α   predicted     0.0000000E+00 (-100.00%)
   displ. norm   :     0.3599540 α      lambda       -0.9694143E-02
   maximum displ.:     0.1023748 α      in ANC's #47, #58, #49, ...

........................................................................
.............................. CYCLE    2 ..............................
........................................................................

 iter      E             dE          RMSdq      gap      omega  full diag
   1    -86.6243181 -0.866243E+02  0.137E-01    5.00       0.0  T
   2    -86.6243508 -0.327260E-04  0.806E-02    5.00       1.0  T
   3    -86.6243173  0.335625E-04  0.271E-02    5.00       1.0  T
   4    -86.6243556 -0.383276E-04  0.806E-03    5.00       1.4  T
   5    -86.6243587 -0.313344E-05  0.228E-03    5.00       5.1  T
   6    -86.6243587 -0.284354E-07  0.978E-04    5.00      11.9  T
   7    -86.6243588 -0.784438E-08  0.255E-04    5.00      45.5  T
     SCC iter.                  ...        0 min,  0.123 sec
     gradient                   ...        0 min,  0.067 sec
 * total energy  :   -85.4285355 Eh     change       -0.6208648E-02 Eh
   gradient norm :     0.0148455 Eh/α   predicted    -0.5475381E-02 ( -11.81%)
   displ. norm   :     0.2835673 α      lambda       -0.2022416E-02
   maximum displ.:     0.1309524 α      in ANC's #9, #34, #31, ...

........................................................................
.............................. CYCLE    3 ..............................
........................................................................

 iter      E             dE          RMSdq      gap      omega  full diag
   1    -86.6444208 -0.866444E+02  0.571E-02    5.04       0.0  T
   2    -86.6444270 -0.629429E-05  0.338E-02    5.04       1.0  T
   3    -86.6444132  0.138521E-04  0.176E-02    5.04       1.0  T
   4    -86.6444299 -0.166695E-04  0.318E-03    5.04       3.7  T
   5    -86.6444302 -0.360247E-06  0.978E-04    5.04      11.9  T
   6    -86.6444302 -0.574175E-08  0.400E-04    5.04      29.0  T
     SCC iter.                  ...        0 min,  0.095 sec
     gradient                   ...        0 min,  0.075 sec
 * total energy  :   -85.4297866 Eh     change       -0.1251072E-02 Eh
   gradient norm :     0.0058331 Eh/α   predicted    -0.1096419E-02 ( -12.36%)
   displ. norm   :     0.2258216 α      lambda       -0.5316949E-03
   maximum displ.:     0.1320920 α      in ANC's #9, #6, #10, ...

........................................................................
.............................. CYCLE    4 ..............................
........................................................................

 iter      E             dE          RMSdq      gap      omega  full diag
   1    -86.6490467 -0.866490E+02  0.298E-02    5.03       0.0  T
   2    -86.6490477 -0.104146E-05  0.175E-02    5.03       1.0  T
   3    -86.6490465  0.115724E-05  0.513E-03    5.03       2.3  T
   4    -86.6490479 -0.134173E-05  0.156E-03    5.03       7.5  T
   5    -86.6490480 -0.113530E-06  0.509E-04    5.03      22.9  T
   6    -86.6490480 -0.197757E-08  0.178E-04    5.03      65.5  T
     SCC iter.                  ...        0 min,  0.090 sec
     gradient                   ...        0 min,  0.065 sec
 * total energy  :   -85.4301762 Eh     change       -0.3895942E-03 Eh
   gradient norm :     0.0043136 Eh/α   predicted    -0.2794139E-03 ( -28.28%)
   displ. norm   :     0.2804555 α      lambda       -0.4180897E-03
   maximum displ.:     0.1592049 α      in ANC's #9, #6, #10, ...

........................................................................
.............................. CYCLE    5 ..............................
........................................................................

 iter      E             dE          RMSdq      gap      omega  full diag
   1    -86.6504056 -0.866504E+02  0.346E-02    5.01       0.0  T
   2    -86.6504063 -0.728803E-06  0.205E-02    5.01       1.0  T
   3    -86.6504060  0.262763E-06  0.295E-03    5.01       3.9  T
   4    -86.6504064 -0.414901E-06  0.118E-03    5.01       9.9  T
   5    -86.6504065 -0.509701E-07  0.564E-04    5.01      20.6  T
   6    -86.6504065 -0.366674E-08  0.122E-04    5.01      95.4  T
     SCC iter.                  ...        0 min,  0.104 sec
     gradient                   ...        0 min,  0.058 sec
 * total energy  :   -85.4304608 Eh     change       -0.2845598E-03 Eh
   gradient norm :     0.0034134 Eh/α   predicted    -0.2254900E-03 ( -20.76%)
   displ. norm   :     0.2038821 α      lambda       -0.1830754E-03
   maximum displ.:     0.0975192 α      in ANC's #9, #6, #12, ...

........................................................................
.............................. CYCLE    6 ..............................
........................................................................

 iter      E             dE          RMSdq      gap      omega  full diag
   1    -86.6499845 -0.866500E+02  0.251E-02    5.01       0.0  T
   2    -86.6499848 -0.241587E-06  0.149E-02    5.01       1.0  T
   3    -86.6499846  0.186772E-06  0.223E-03    5.01       5.2  T
   4    -86.6499849 -0.272314E-06  0.788E-04    5.01      14.8  T
   5    -86.6499849 -0.180415E-07  0.376E-04    5.01      30.9  T
     SCC iter.                  ...        0 min,  0.078 sec
     gradient                   ...        0 min,  0.058 sec
 * total energy  :   -85.4305853 Eh     change       -0.1245611E-03 Eh
   gradient norm :     0.0023348 Eh/α   predicted    -0.9534366E-04 ( -23.46%)
   displ. norm   :     0.1436386 α      lambda       -0.9046337E-04
   maximum displ.:     0.0660667 α      in ANC's #12, #6, #4, ...

........................................................................
.............................. CYCLE    7 ..............................
........................................................................

 iter      E             dE          RMSdq      gap      omega  full diag
   1    -86.6495758 -0.866496E+02  0.177E-02    5.01       0.0  T
   2    -86.6495759 -0.131530E-06  0.105E-02    5.01       1.1  T
   3    -86.6495756  0.279314E-06  0.240E-03    5.01       4.8  T
   4    -86.6495760 -0.343502E-06  0.556E-04    5.01      20.9  T
   5    -86.6495760 -0.702732E-08  0.276E-04    5.01      42.1  T
     SCC iter.                  ...        0 min,  0.063 sec
     gradient                   ...        0 min,  0.062 sec
 * total energy  :   -85.4306490 Eh     change       -0.6369686E-04 Eh
   gradient norm :     0.0014900 Eh/α   predicted    -0.4617374E-04 ( -27.51%)
   displ. norm   :     0.1960550 α      lambda       -0.6287610E-04
   maximum displ.:     0.1057353 α      in ANC's #12, #22, #4, ...

........................................................................
.............................. CYCLE    8 ..............................
........................................................................

 iter      E             dE          RMSdq      gap      omega  full diag
   1    -86.6489850 -0.866490E+02  0.241E-02    5.02       0.0  T
   2    -86.6489852 -0.224241E-06  0.143E-02    5.02       1.0  T
   3    -86.6489848  0.401876E-06  0.292E-03    5.02       4.0  T
   4    -86.6489853 -0.497170E-06  0.757E-04    5.02      15.4  T
   5    -86.6489853 -0.158890E-07  0.371E-04    5.02      31.3  T
     SCC iter.                  ...        0 min,  0.089 sec
     gradient                   ...        0 min,  0.065 sec
 * total energy  :   -85.4307054 Eh     change       -0.5641958E-04 Eh
   gradient norm :     0.0023963 Eh/α   predicted    -0.3197536E-04 ( -43.33%)
   displ. norm   :     0.0827813 α      lambda       -0.3889677E-04
   maximum displ.:     0.0430468 α      in ANC's #12, #22, #4, ...

........................................................................
.............................. CYCLE    9 ..............................
........................................................................

 iter      E             dE          RMSdq      gap      omega  full diag
   1    -86.6491774 -0.866492E+02  0.100E-02    5.02       0.0  T
   2    -86.6491774 -0.307336E-07  0.597E-03    5.02       1.9  T
   3    -86.6491774 -0.394363E-08  0.433E-04    5.02      26.9  T
   4    -86.6491775 -0.562065E-08  0.235E-04    5.02      49.5  T
     SCC iter.                  ...        0 min,  0.056 sec
     gradient                   ...        0 min,  0.060 sec
 * total energy  :   -85.4307389 Eh     change       -0.3341084E-04 Eh
   gradient norm :     0.0019248 Eh/α   predicted    -0.1958584E-04 ( -41.38%)
   displ. norm   :     0.3410358 α      lambda       -0.8634696E-04
   maximum displ.:     0.1746517 α      in ANC's #12, #22, #4, ...

........................................................................
.............................. CYCLE   10 ..............................
........................................................................

 iter      E             dE          RMSdq      gap      omega  full diag
   1    -86.6483817 -0.866484E+02  0.404E-02    5.02       0.0  T
   2    -86.6483822 -0.471337E-06  0.241E-02    5.02       1.0  T
   3    -86.6483820  0.117775E-06  0.245E-03    5.02       4.7  T
   4    -86.6483823 -0.263178E-06  0.112E-03    5.02      10.4  T
   5    -86.6483823 -0.331979E-07  0.552E-04    5.02      21.1  T
   6    -86.6483823 -0.518567E-08  0.122E-04    5.02      95.3  T
     SCC iter.                  ...        0 min,  0.097 sec
     gradient                   ...        0 min,  0.074 sec
 * total energy  :   -85.4307943 Eh     change       -0.5547504E-04 Eh
   gradient norm :     0.0017970 Eh/α   predicted    -0.4540615E-04 ( -18.15%)
   displ. norm   :     0.0401396 α      lambda       -0.1784599E-04
   maximum displ.:     0.0166742 α      in ANC's #14, #15, #9, ...

........................................................................
.............................. CYCLE   11 ..............................
........................................................................

 iter      E             dE          RMSdq      gap      omega  full diag
   1    -86.6498101 -0.866498E+02  0.671E-03    5.02       0.0  T
   2    -86.6498102 -0.962891E-07  0.390E-03    5.02       3.0  T
   3    -86.6498102 -0.174137E-08  0.662E-04    5.02      17.6  T
   4    -86.6498102 -0.764499E-08  0.203E-04    5.02      57.2  T
     SCC iter.                  ...        0 min,  0.059 sec
     gradient                   ...        0 min,  0.076 sec
 * total energy  :   -85.4308131 Eh     change       -0.1879651E-04 Eh
   gradient norm :     0.0009577 Eh/α   predicted    -0.8932280E-05 ( -52.48%)
   displ. norm   :     0.1126666 α      lambda       -0.2257842E-04
   maximum displ.:     0.0460926 α      in ANC's #4, #2, #11, ...

........................................................................
.............................. CYCLE   12 ..............................
........................................................................

 iter      E             dE          RMSdq      gap      omega  full diag
   1    -86.6499286 -0.866499E+02  0.125E-02    5.01       0.0  T
   2    -86.6499286 -0.508382E-07  0.744E-03    5.01       1.6  T
   3    -86.6499286  0.242267E-09  0.568E-04    5.01      20.5  T
   4    -86.6499287 -0.144237E-07  0.218E-04    5.01      53.2  T
     SCC iter.                  ...        0 min,  0.067 sec
     gradient                   ...        0 min,  0.062 sec
 * total energy  :   -85.4308373 Eh     change       -0.2419390E-04 Eh
   gradient norm :     0.0010747 Eh/α   predicted    -0.1135650E-04 ( -53.06%)
   displ. norm   :     0.1774809 α      lambda       -0.2138753E-04
   maximum displ.:     0.0802004 α      in ANC's #4, #2, #22, ...

........................................................................
.............................. CYCLE   13 ..............................
........................................................................

 iter      E             dE          RMSdq      gap      omega  full diag
   1    -86.6497273 -0.866497E+02  0.185E-02    5.02       0.0  T
   2    -86.6497273 -0.714220E-07  0.110E-02    5.02       1.1  T
   3    -86.6497274 -0.113143E-07  0.561E-04    5.02      20.7  T
   4    -86.6497274 -0.954130E-08  0.260E-04    5.02      44.8  T
     SCC iter.                  ...        0 min,  0.076 sec
     gradient                   ...        0 min,  0.102 sec
 * total energy  :   -85.4308606 Eh     change       -0.2331565E-04 Eh
   gradient norm :     0.0013476 Eh/α   predicted    -0.1084782E-04 ( -53.47%)
   displ. norm   :     0.2000380 α      lambda       -0.2011190E-04
   maximum displ.:     0.0944355 α      in ANC's #4, #2, #13, ...

........................................................................
.............................. CYCLE   14 ..............................
........................................................................

 iter      E             dE          RMSdq      gap      omega  full diag
   1    -86.6494056 -0.866494E+02  0.208E-02    5.02       0.0  T
   2    -86.6494056 -0.778288E-07  0.124E-02    5.02       1.0  T
   3    -86.6494056 -0.907211E-08  0.636E-04    5.02      18.3  T
   4    -86.6494057 -0.123148E-07  0.359E-04    5.02      32.4  T
     SCC iter.                  ...        0 min,  0.065 sec
     gradient                   ...        0 min,  0.075 sec
 * total energy  :   -85.4308814 Eh     change       -0.2080722E-04 Eh
   gradient norm :     0.0012052 Eh/α   predicted    -0.1023838E-04 ( -50.79%)
   displ. norm   :     0.1630352 α      lambda       -0.1562009E-04
   maximum displ.:     0.0803420 α      in ANC's #4, #2, #13, ...

........................................................................
.............................. CYCLE   15 ..............................
........................................................................

 iter      E             dE          RMSdq      gap      omega  full diag
   1    -86.6493801 -0.866494E+02  0.165E-02    5.02       0.0  T
   2    -86.6493801 -0.575578E-07  0.980E-03    5.02       1.2  T
   3    -86.6493801  0.117569E-07  0.730E-04    5.02      15.9  T
   4    -86.6493802 -0.230288E-07  0.356E-04    5.02      32.6  T
     SCC iter.                  ...        0 min,  0.078 sec
     gradient                   ...        0 min,  0.068 sec
 * total energy  :   -85.4308976 Eh     change       -0.1611399E-04 Eh
   gradient norm :     0.0009020 Eh/α   predicted    -0.7903611E-05 ( -50.95%)
   displ. norm   :     0.1349909 α      lambda       -0.1226171E-04
   maximum displ.:     0.0686366 α      in ANC's #4, #2, #13, ...

........................................................................
.............................. CYCLE   16 ..............................
........................................................................

 iter      E             dE          RMSdq      gap      omega  full diag
   1    -86.6497889 -0.866498E+02  0.135E-02    5.02       0.0  T
   2    -86.6497890 -0.465940E-07  0.806E-03    5.02       1.4  T
   3    -86.6497890 -0.760436E-08  0.380E-04    5.02      30.6  T
   4    -86.6497890 -0.340829E-08  0.187E-04    5.02      62.1  T
     SCC iter.                  ...        0 min,  0.089 sec
     gradient                   ...        0 min,  0.064 sec
 * total energy  :   -85.4309100 Eh     change       -0.1245271E-04 Eh
   gradient norm :     0.0008032 Eh/α   predicted    -0.6183184E-05 ( -50.35%)
   displ. norm   :     0.1115419 α      lambda       -0.8164521E-05
   maximum displ.:     0.0578941 α      in ANC's #4, #2, #12, ...

........................................................................
.............................. CYCLE   17 ..............................
........................................................................

 iter      E             dE          RMSdq      gap      omega  full diag
   1    -86.6497639 -0.866498E+02  0.109E-02    5.02       0.0  T
   2    -86.6497640 -0.253768E-07  0.650E-03    5.02       1.8  T
   3    -86.6497640 -0.493837E-08  0.327E-04    5.02      35.5  T
   4    -86.6497640 -0.292872E-08  0.163E-04    5.02      71.4  T
     SCC iter.                  ...        0 min,  0.052 sec
     gradient                   ...        0 min,  0.082 sec
 * total energy  :   -85.4309188 Eh     change       -0.8776618E-05 Eh
   gradient norm :     0.0006974 Eh/α   predicted    -0.4105474E-05 ( -53.22%)
   displ. norm   :     0.0940296 α      lambda       -0.7079953E-05
   maximum displ.:     0.0462353 α      in ANC's #4, #2, #1, ...

........................................................................
.............................. CYCLE   18 ..............................
........................................................................

 iter      E             dE          RMSdq      gap      omega  full diag
   1    -86.6499895 -0.866500E+02  0.896E-03    5.02       0.0  T
   2    -86.6499895 -0.299797E-07  0.534E-03    5.02       2.2  T
   3    -86.6499895  0.207094E-07  0.714E-04    5.02      16.3  T
   4    -86.6499895 -0.257720E-07  0.266E-04    5.02      43.8  T
     SCC iter.                  ...        0 min,  0.063 sec
     gradient                   ...        0 min,  0.062 sec
 * total energy  :   -85.4309256 Eh     change       -0.6825906E-05 Eh
   gradient norm :     0.0006195 Eh/α   predicted    -0.3556271E-05 ( -47.90%)
   displ. norm   :     0.0936528 α      lambda        0.1269034E-05
   maximum displ.:     0.0460448 α      in ANC's #4, #2, #1, ...

........................................................................
.............................. CYCLE   19 ..............................
........................................................................

 iter      E             dE          RMSdq      gap      omega  full diag
   1    -86.6501043 -0.866501E+02  0.891E-03    5.02       0.0  T
   2    -86.6501043 -0.263917E-07  0.531E-03    5.02       2.2  T
   3    -86.6501043  0.123532E-07  0.598E-04    5.02      19.4  T
   4    -86.6501043 -0.167920E-07  0.251E-04    5.02      46.2  T
     SCC iter.                  ...        0 min,  0.066 sec
     gradient                   ...        0 min,  0.056 sec
 * total energy  :   -85.4309251 Eh     change        0.5410871E-06 Eh
   gradient norm :     0.0011315 Eh/α   predicted     0.6369594E-06 (  17.72%)
   displ. norm   :     0.0226935 α      lambda       -0.5792635E-05
   maximum displ.:     0.0097143 α      in ANC's #10, #7, #22, ...

........................................................................
.............................. CYCLE   20 ..............................
........................................................................

 iter      E             dE          RMSdq      gap      omega  full diag
   1    -86.6495838 -0.866496E+02  0.494E-03    5.02       0.0  T
   2    -86.6495838 -0.610290E-07  0.285E-03    5.02       4.1  T
   3    -86.6495838 -0.940844E-09  0.523E-04    5.02      22.2  T
   4    -86.6495838 -0.284300E-08  0.159E-04    5.02      73.0  T
     SCC iter.                  ...        0 min,  0.060 sec
     gradient                   ...        0 min,  0.080 sec
 * total energy  :   -85.4309298 Eh     change       -0.4736924E-05 Eh
   gradient norm :     0.0005176 Eh/α   predicted    -0.2900006E-05 ( -38.78%)
   displ. norm   :     0.0435601 α      lambda       -0.3532925E-05
   maximum displ.:     0.0184427 α      in ANC's #3, #12, #10, ...

   *** GEOMETRY OPTIMIZATION CONVERGED AFTER 20 ITERATIONS ***

------------------------------------------------------------------------
 total energy gain   :        -0.0086029 Eh       -5.3984 kcal/mol
 total RMSD          :         0.2523982 a0        0.1336 Å
 total power (kW/mol):        -1.1293477 (step)   -6.6338 (real)
------------------------------------------------------------------------

 ANCopt (total)                0 d,  0 h,  0 min,  3.405 sec
 optimizer setup                ...        0 min,  0.020 sec (  0.582%)
 model hessian                  ...        0 min,  0.079 sec (  2.329%)
 ANC generation                 ...        0 min,  0.015 sec (  0.436%)
 coordinate transformation      ...        0 min,  0.005 sec (  0.147%)
 single point calculation       ...        0 min,  3.255 sec ( 95.590%)
 optimization log               ...        0 min,  0.003 sec (  0.095%)
 hessian update                 ...        0 min,  0.003 sec (  0.095%)
 rational function              ...        0 min,  0.014 sec (  0.422%)

================
 final structure:
================
74
 xtb: 6.7.1 (unknown)
C            7.14879148007534        4.05916698681457       -1.57469673116009
C            6.62292470809429        2.66709873547380       -1.22760821480377
C            7.02033705928805        1.68006734036610       -2.32293150033310
C            7.15237627103668        2.23557546180417        0.14494418990742
C            6.44960496198536        1.00595410579226        0.71754397951530
C            7.01688463517637        0.63334101353703        2.08720357106449
C            6.27881897283745       -0.53205319925849        2.76852297334367
C            6.61128772805745       -1.83567719179078        2.04380862572639
C            6.66156191138177       -0.58262442619075        4.25865354176867
C            6.27286303008056        0.72130557828499        5.00307066987775
C            5.89455870186264        0.33010182884719        6.44239648122723
C            6.35247054604225       -1.12071463509129        6.54293907206059
C            5.82894501969484       -1.95505371503749        7.70737516308400
C            6.23979507487565       -1.31441980792220        9.03251065558902
C            6.10546273286167       -2.25696863653668       10.18132192185778
C            5.95817892721423       -3.56992252820236       10.07894028600385
C            5.80787868846253       -4.41346368216740       11.31556347025068
C            6.80495955887109       -5.57684374552912       11.33057922749476
O            6.68184431293701       -6.36012238153992       12.49723322060686
C            6.62183191480275       -6.39869523444424       10.05627356983975
C            6.84819864592173       -5.52388951910589        8.82908293673455
C            5.91364755822566       -4.29745744990744        8.74869232921892
C            4.47089485272133       -4.75827015816821        8.48819233996446
C            6.42996768404222       -3.36659938871472        7.61682527654165
C            6.22490477691420       -3.96528731168508        6.21949053913128
C            6.72789998008040       -3.06149936667445        5.09086225859879
C            6.04451862794837       -1.69427544900757        5.14689398493685
C            4.54403220577708       -1.81916990603845        4.87291676570481
H            6.77541561265854        4.37914097741854       -2.54503609938035
H            8.23633598849172        4.05318306016506       -1.61116188581519
H            6.83480550496731        4.78769463332559       -0.83039058952916
H            5.52876559032405        2.71228374436598       -1.17833512773243
H            8.10376883891265        1.59422247948111       -2.37815600543657
H            6.65477258931629        2.02064736025475       -3.28938992651568
H            6.60529478257787        0.69351269193290       -2.13514905669050
H            7.02436014338980        3.06513984814613        0.84548022468969
H            8.22392362028065        2.03538512205221        0.06672384763656
H            6.56281862408925        0.17109293826009        0.02616949274596
H            5.38111231586957        1.21576518802536        0.81460956449677
H            6.96260514161650        1.51867346683858        2.72073831719017
H            8.07190545959359        0.36950562026621        1.98124910675336
H            5.20330303102005       -0.34786325243145        2.68337242814356
H            7.63753113221976       -2.13243545403926        2.24875143530885
H            6.49963162395950       -1.71244288969847        0.96995723408988
H            5.94895080386674       -2.63972750147316        2.34817149470554
H            7.75045852918338       -0.69905326992914        4.30554716042801
H            5.43561162678544        1.20859536784029        4.50282307616690
H            7.10709353145232        1.42203387129144        5.00756889876834
H            4.81878132853712        0.40186064190527        6.60430748636960
H            6.38514672377694        0.96906630269907        7.17545531500509
H            7.44635935080779       -1.10874917540690        6.63502208473992
H            4.73842013200015       -2.00928925730277        7.67340148861460
H            5.63553340619697       -0.42400177770341        9.22247932621435
H            7.28325557425447       -0.98407127465739        8.97194582730801
H            6.14464309153218       -1.79901717014452       11.16175527008821
H            4.79498873679679       -4.82826399525697       11.36712962653392
H            5.95446359076686       -3.79829253735812       12.20504915235449
H            7.82583900370573       -5.18161918965582       11.37000753411481
H            5.79284527544289       -6.73300941691198       12.52284736793712
H            5.61641280026788       -6.82744350095563       10.04195894208588
H            7.33479449642892       -7.22609822630310       10.05248758742560
H            6.72145595144972       -6.13508005697872        7.93440138747815
H            7.88221702615925       -5.17075296055988        8.84922073089630
H            4.06336077096266       -5.26279518434052        9.35906286296541
H            4.42815397468007       -5.45261214721261        7.65314113352084
H            3.83015235792925       -3.90691540140791        8.27393029167676
H            7.51010145521877       -3.25123728467055        7.77233282382618
H            5.16805743023649       -4.16427093006008        6.05302496981451
H            6.75531190897808       -4.91662490070887        6.15249357052876
H            6.54142577393101       -3.56605755323564        4.14358044834157
H            7.80817615395013       -2.92641684620029        5.18723422666783
H            4.37454264502758       -2.36522272181430        3.94818351836776
H            4.08439942580001       -0.84075173377634        4.77689218026220
H            4.03518655731930       -2.35041102198206        5.67067065308719

 Bond Distances (Angstroems)
 ---------------------------
C1-C2=1.5280         C1-H29=1.0878        C1-H30=1.0882        C1-H31=1.0878        C2-C1=1.5280         C2-C3=1.5271         
C2-C4=1.5331         C2-H32=1.0962        C3-C2=1.5271         C3-H33=1.0882        C3-H34=1.0880        C3-H35=1.0867        
C4-C2=1.5331         C4-C5=1.5277         C4-H36=1.0933        C4-H37=1.0929        C5-C4=1.5277         C5-C6=1.5286         
C5-H38=1.0899        C5-H39=1.0932        C6-C5=1.5286         C6-C7=1.5385         C6-H40=1.0900        C6-H41=1.0927        
C7-C6=1.5385         C7-C8=1.5281         C7-C9=1.5393         C7-H42=1.0945        C8-C7=1.5281         C8-H43=1.0878        
C8-H44=1.0867        C8-H45=1.0853        C9-C7=1.5393         C9-C10=1.5510        C9-C27=1.5510        C9-H46=1.0961        
C10-C9=1.5510        C10-C11=1.5388       C10-H47=1.0903       C10-H48=1.0895       C11-C10=1.5388       C11-C12=1.5247       
C11-H49=1.0903       C11-H50=1.0892       C12-C11=1.5247       C12-C13=1.5252       C12-C27=1.5404       C12-H51=1.0978       
C13-C12=1.5252       C13-C14=1.5281       C13-C24=1.5368       C13-H52=1.0924       C14-C13=1.5281       C14-C15=1.4920       
C14-H53=1.0927       C14-H54=1.0962       C15-C14=1.4920       C15-C16=1.3252       C15-H55=1.0828       C16-C15=1.3252       
C16-C17=1.5045       C16-C22=1.5169       C17-C16=1.5045       C17-C18=1.5323       C17-H56=1.0957       C17-H57=1.0914       
C18-C17=1.5323       C18-O19=1.4106       C18-C20=1.5274       C18-H58=1.0954       O19-C18=1.4106       O19-H59=0.9644       
C20-C18=1.5274       C20-C21=1.5240       C20-H60=1.0931       C20-H61=1.0922       C21-C20=1.5240       C21-C22=1.5440       
C21-H62=1.0909       C21-H63=1.0928       C22-C16=1.5169       C22-C21=1.5440       C22-C23=1.5368       C22-C24=1.5538       
C23-C22=1.5368       C23-H64=1.0858       C23-H65=1.0869       C23-H66=1.0869       C24-C13=1.5368       C24-C22=1.5538       
C24-C25=1.5340       C24-H67=1.0974       C25-C24=1.5340       C25-C26=1.5309       C25-H68=1.0882       C25-H69=1.0913       
C26-C25=1.5309       C26-C27=1.5295       C26-H70=1.0894       C26-H71=1.0929       C27-C9=1.5510        C27-C12=1.5404       
C27-C26=1.5295       C27-C28=1.5304       C28-C27=1.5304       C28-H72=1.0872       C28-H73=1.0853       C28-H74=1.0852       
H29-C1=1.0878        H30-C1=1.0882        H31-C1=1.0878        H32-C2=1.0962        H33-C3=1.0882        H34-C3=1.0880        
H35-C3=1.0867        H36-C4=1.0933        H37-C4=1.0929        H38-C5=1.0899        H39-C5=1.0932        H40-C6=1.0900        
H41-C6=1.0927        H42-C7=1.0945        H43-C8=1.0878        H44-C8=1.0867        H45-C8=1.0853        H46-C9=1.0961        
H47-C10=1.0903       H48-C10=1.0895       H49-C11=1.0903       H50-C11=1.0892       H51-C12=1.0978       H52-C13=1.0924       
H53-C14=1.0927       H54-C14=1.0962       H55-C15=1.0828       H56-C17=1.0957       H57-C17=1.0914       H58-C18=1.0954       
H59-O19=0.9644       H60-C20=1.0931       H61-C20=1.0922       H62-C21=1.0909       H63-C21=1.0928       H64-C23=1.0858       
H65-C23=1.0869       H66-C23=1.0869       H67-C24=1.0974       H68-C25=1.0882       H69-C25=1.0913       H70-C26=1.0894       
H71-C26=1.0929       H72-C28=1.0872       H73-C28=1.0853       H74-C28=1.0852       
 C  H  Rav=1.0905 sigma=0.0037  Rmin=1.0828  Rmax=1.0978    45
 C  C  Rav=1.5243 sigma=0.0389  Rmin=1.3252  Rmax=1.5538    30
 O  H  Rav=0.9644 sigma=0.0000  Rmin=0.9644  Rmax=0.9644     1
 O  C  Rav=1.4106 sigma=0.0000  Rmin=1.4106  Rmax=1.4106     1

 selected bond angles (degree)
 --------------------
H29-C1-C2=110.64               H30-C1-C2=110.28               H30-C1-H29=108.35              H31-C1-C2=110.82               
H31-C1-H29=108.32              H31-C1-H30=108.37              C3-C2-C1=109.66                C4-C2-C1=109.93                
C4-C2-C3=111.74                H32-C2-C1=108.43               H32-C2-C3=108.58               H32-C2-C4=108.42               
H33-C3-C2=110.27               H34-C3-C2=110.33               H34-C3-H33=108.31              H35-C3-C2=111.31               
H35-C3-H33=108.51              H35-C3-H34=108.02              C5-C4-C2=113.78                H36-C4-C2=108.64               
H36-C4-C5=108.46               H37-C4-C2=109.03               H37-C4-C5=109.30               H37-C4-H36=107.44              
C6-C5-C4=111.18                H38-C5-C4=109.33               H38-C5-C6=110.07               H39-C5-C4=109.17               
H39-C5-C6=109.27               H39-C5-H38=107.75              C7-C6-C5=113.79                H40-C6-C5=107.72               
H40-C6-C7=109.51               H41-C6-C5=109.29               H41-C6-C7=108.86               H41-C6-H40=107.49              
C8-C7-C6=109.38                C9-C7-C6=109.53                C9-C7-C8=112.15                H42-C7-C6=108.03               
H42-C7-C8=108.69               H42-C7-C9=108.98               H43-C8-C7=110.40               H44-C8-C7=110.46               
H44-C8-H43=108.30              H45-C8-C7=111.48               H45-C8-H43=108.71              H45-C8-H44=107.36              
C10-C9-C7=112.01               C27-C9-C7=118.62               C27-C9-C10=103.18              H46-C9-C7=106.97               
H46-C9-C10=108.53              H46-C9-C27=107.13              C11-C10-C9=107.27              H47-C10-C9=110.36              
H47-C10-C11=110.73             H48-C10-C9=110.54              H48-C10-C11=110.36             H48-C10-H47=107.60             

 selected dihedral angles (degree)
 ---------------------------------
C3-C2-C1-H29= 57.08           C3-C2-C1-H30=297.23           C3-C2-C1-H31=177.25           C4-C2-C1-H29=180.30           
C4-C2-C1-H30= 60.45           C4-C2-C1-H31=300.47           H32-C2-C1-H29=298.68          H32-C2-C1-H30=178.83          
H32-C2-C1-H31= 58.84          H33-C3-C2-C1= 63.16           H33-C3-C2-C4=301.01           H33-C3-C2-H32=181.47          
H34-C3-C2-C1=303.56           H34-C3-C2-C4=181.41           H34-C3-C2-H32= 61.87          H35-C3-C2-C1=183.65           
H35-C3-C2-C4= 61.50           H35-C3-C2-H32=301.96          C5-C4-C2-C1=167.32            C5-C4-C2-C3=289.31            
C5-C4-C2-H32= 48.94           H36-C4-C2-C1= 46.39           H36-C4-C2-C3=168.38           H36-C4-C2-H32=288.01          
H37-C4-C2-C1=289.59           H37-C4-C2-C3= 51.58           H37-C4-C2-H32=171.21          C6-C5-C4-C2=180.33            
C6-C5-C4-H36=301.35           C6-C5-C4-H37= 58.20           H38-C5-C4-C2= 58.60           H38-C5-C4-H36=179.62          
H38-C5-C4-H37=296.47          H39-C5-C4-C2=300.95           H39-C5-C4-H36= 61.97          H39-C5-C4-H37=178.82          
C7-C6-C5-C4=175.53            C7-C6-C5-H38=296.83           C7-C6-C5-H39= 54.96           H40-C6-C5-C4= 53.93           
H40-C6-C5-H38=175.23          H40-C6-C5-H39=293.36          H41-C6-C5-C4=297.44           H41-C6-C5-H38= 58.74          
H41-C6-C5-H39=176.87          C8-C7-C6-C5= 71.77            C8-C7-C6-H40=192.37           C8-C7-C6-H41=309.62           
C9-C7-C6-C5=195.05            C9-C7-C6-H40=315.65           C9-C7-C6-H41= 72.90           H42-C7-C6-C5=313.62           
H42-C7-C6-H40= 74.22          H42-C7-C6-H41=191.48          H43-C8-C7-C6= 71.66           H43-C8-C7-C9=309.94           
H43-C8-C7-H42=189.39          H44-C8-C7-C6=311.90           H44-C8-C7-C9=190.18           H44-C8-C7-H42= 69.63          
H45-C8-C7-C6=192.61           H45-C8-C7-C9= 70.89           H45-C8-C7-H42=310.34          C10-C9-C7-C6= 60.57           
C10-C9-C7-C8=182.21           C10-C9-C7-H42=302.59          C27-C9-C7-C6=180.62           C27-C9-C7-C8=302.25           
C27-C9-C7-H42= 62.64          H46-C9-C7-C6=301.78           H46-C9-C7-C8= 63.41           H46-C9-C7-H42=183.80          
C11-C10-C9-C7=146.88          C11-C10-C9-C27= 18.17         C11-C10-C9-H46=264.75         H47-C10-C9-C7= 26.16          
H47-C10-C9-C27=257.46         H47-C10-C9-H46=144.03         H48-C10-C9-C7=267.24          H48-C10-C9-C27=138.54         
H48-C10-C9-H46= 25.11         
           -------------------------------------------------
          |                Final Singlepoint                |
           -------------------------------------------------

          ...................................................
          :                      SETUP                      :
          :.................................................:
          :  # basis functions                 158          :
          :  # atomic orbitals                 158          :
          :  # shells                          102          :
          :  # electrons                       160          :
          :  max. iterations                   250          :
          :  Hamiltonian                  GFN2-xTB          :
          :  restarted?                      false          :
          :  GBSA solvation                  false          :
          :  PC potential                    false          :
          :  electronic temp.          300.0000000     K    :
          :  accuracy                    1.0000000          :
          :  -> integral cutoff          0.2500000E+02      :
          :  -> integral neglect         0.1000000E-07      :
          :  -> SCF convergence          0.1000000E-05 Eh   :
          :  -> wf. convergence          0.1000000E-03 e    :
          :  Broyden damping             0.4000000          :
          :  net charge                          0          :
          :  unpaired electrons                  0          :
          ...................................................

 iter      E             dE          RMSdq      gap      omega  full diag
   1    -86.6495838 -0.866496E+02  0.885E-05    5.02       0.0  T
   2    -86.6495838 -0.172236E-10  0.658E-05    5.02     176.8  T
   3    -86.6495838 -0.143459E-09  0.352E-05    5.02     329.9  T

   *** convergence criteria satisfied after 3 iterations ***

         #    Occupation            Energy/Eh            Energy/eV
      -------------------------------------------------------------
         1        2.0000           -0.6828076             -18.5801
       ...           ...                  ...                  ...
        74        2.0000           -0.4102032             -11.1622
        75        2.0000           -0.4079853             -11.1018
        76        2.0000           -0.4046889             -11.0121
        77        2.0000           -0.4039444             -10.9919
        78        2.0000           -0.3936182             -10.7109
        79        2.0000           -0.3873932             -10.5415
        80        2.0000           -0.3742043             -10.1826 (HOMO)
        81                         -0.1897479              -5.1633 (LUMO)
        82                          0.0102115               0.2779
        83                          0.0234374               0.6378
        84                          0.0323166               0.8794
        85                          0.0449495               1.2231
       ...                                ...                  ...
       158                          0.6522101              17.7475
      -------------------------------------------------------------
                  HL-Gap            0.1844564 Eh            5.0193 eV
             Fermi-level           -0.2819761 Eh           -7.6730 eV

 SCC (total)                   0 d,  0 h,  0 min,  0.111 sec
 SCC setup                      ...        0 min,  0.002 sec (  1.912%)
 Dispersion                     ...        0 min,  0.001 sec (  0.512%)
 classical contributions        ...        0 min,  0.000 sec (  0.134%)
 integral evaluation            ...        0 min,  0.012 sec ( 10.913%)
 iterations                     ...        0 min,  0.045 sec ( 40.105%)
 molecular gradient             ...        0 min,  0.050 sec ( 44.938%)
 printout                       ...        0 min,  0.002 sec (  1.469%)

         :::::::::::::::::::::::::::::::::::::::::::::::::::::
         ::                     SUMMARY                     ::
         :::::::::::::::::::::::::::::::::::::::::::::::::::::
         :: total energy             -85.430929808137 Eh    ::
         :: gradient norm              0.000517546450 Eh/a0 ::
         :: HOMO-LUMO gap              5.019315292392 eV    ::
         ::.................................................::
         :: SCC energy               -86.648727348088 Eh    ::
         :: -> isotropic ES            0.036489796513 Eh    ::
         :: -> anisotropic ES          0.022628674949 Eh    ::
         :: -> anisotropic XC          0.040330459551 Eh    ::
         :: -> dispersion             -0.078233089934 Eh    ::
         :: repulsion energy           1.217797539952 Eh    ::
         :: add. restraining           0.000000000000 Eh    ::
         :: total charge               0.000000000000 e     ::
         :::::::::::::::::::::::::::::::::::::::::::::::::::::

           -------------------------------------------------
          |                Property Printout                |
           -------------------------------------------------

    * Orbital Energies and Occupations

         #    Occupation            Energy/Eh            Energy/eV
      -------------------------------------------------------------
         1        2.0000           -0.6828076             -18.5801
       ...           ...                  ...                  ...
        68        2.0000           -0.4250225             -11.5655
        69        2.0000           -0.4229961             -11.5103
        70        2.0000           -0.4197380             -11.4217
        71        2.0000           -0.4176015             -11.3635
        72        2.0000           -0.4156858             -11.3114
        73        2.0000           -0.4117234             -11.2036
        74        2.0000           -0.4102032             -11.1622
        75        2.0000           -0.4079853             -11.1018
        76        2.0000           -0.4046889             -11.0121
        77        2.0000           -0.4039444             -10.9919
        78        2.0000           -0.3936182             -10.7109
        79        2.0000           -0.3873932             -10.5415
        80        2.0000           -0.3742043             -10.1826 (HOMO)
        81                         -0.1897479              -5.1633 (LUMO)
        82                          0.0102115               0.2779
        83                          0.0234374               0.6378
        84                          0.0323166               0.8794
        85                          0.0449495               1.2231
        86                          0.0530489               1.4435
        87                          0.0561595               1.5282
        88                          0.0684742               1.8633
        89                          0.0771594               2.0996
        90                          0.0846653               2.3039
        91                          0.0894617               2.4344
       ...                                ...                  ...
       158                          0.6522101              17.7475
      -------------------------------------------------------------
                  HL-Gap            0.1844564 Eh            5.0193 eV
             Fermi-level           -0.2819761 Eh           -7.6730 eV

     #   Z          covCN         q      C6AA      α(0)
     1   6          3.757    -0.106    22.581     6.775
     2   6          3.849    -0.010    20.722     6.475
     3   6          3.756    -0.105    22.559     6.772
     4   6          3.806    -0.063    21.714     6.634
     5   6          3.801    -0.056    21.589     6.615
     6   6          3.807    -0.066    21.755     6.640
     7   6          3.849    -0.018    20.861     6.496
     8   6          3.755    -0.104    22.540     6.769
     9   6          3.880    -0.031    21.075     6.527
    10   6          3.824    -0.060    21.630     6.618
    11   6          3.818    -0.059    21.627     6.619
    12   6          3.907    -0.026    20.985     6.511
    13   6          3.857    -0.021    20.904     6.502
    14   6          3.812    -0.058    21.609     6.617
    15   6          2.899    -0.054    29.339     8.881
    16   6          2.953    -0.009    28.234     8.715
    17   6          3.813    -0.074    21.903     6.661
    18   6          3.730     0.115    18.787     6.187
    19   8          1.655    -0.448    21.804     6.304
    20   6          3.805    -0.069    21.822     6.650
    21   6          3.812    -0.062    21.673     6.626
    22   6          3.904     0.013    20.296     6.404
    23   6          3.758    -0.101    22.478     6.759
    24   6          3.862    -0.027    21.015     6.519
    25   6          3.804    -0.062    21.690     6.630
    26   6          3.811    -0.061    21.663     6.625
    27   6          3.925     0.014    20.280     6.400
    28   6          3.756    -0.105    22.556     6.772
    29   1          0.925     0.033     2.539     2.492
    30   1          0.925     0.034     2.525     2.485
    31   1          0.925     0.031     2.570     2.507
    32   1          0.924     0.026     2.647     2.544
    33   1          0.925     0.034     2.526     2.485
    34   1          0.925     0.032     2.558     2.501
    35   1          0.925     0.032     2.551     2.498
    36   1          0.924     0.029     2.602     2.523
    37   1          0.924     0.031     2.570     2.507
    38   1          0.925     0.031     2.573     2.508
    39   1          0.924     0.026     2.647     2.544
    40   1          0.925     0.033     2.543     2.494
    41   1          0.924     0.030     2.591     2.517
    42   1          0.924     0.031     2.567     2.506
    43   1          0.925     0.032     2.552     2.498
    44   1          0.925     0.035     2.521     2.483
    45   1          0.925     0.032     2.560     2.502
    46   1          0.924     0.025     2.658     2.549
    47   1          0.924     0.029     2.601     2.522
    48   1          0.925     0.026     2.651     2.546
    49   1          0.924     0.029     2.605     2.524
    50   1          0.925     0.025     2.656     2.549
    51   1          0.924     0.027     2.630     2.536
    52   1          0.924     0.030     2.586     2.515
    53   1          0.924     0.036     2.507     2.476
    54   1          0.924     0.037     2.484     2.465
    55   1          0.925     0.023     2.682     2.561
    56   1          0.924     0.033     2.548     2.496
    57   1          0.924     0.040     2.443     2.445
    58   1          0.924     0.041     2.440     2.443
    59   1          0.805     0.283     0.774     1.382
    60   1          0.924     0.031     2.573     2.509
    61   1          0.924     0.037     2.485     2.465
    62   1          0.924     0.035     2.515     2.480
    63   1          0.924     0.031     2.579     2.511
    64   1          0.925     0.034     2.528     2.486
    65   1          0.925     0.036     2.508     2.477
    66   1          0.925     0.034     2.534     2.490
    67   1          0.924     0.029     2.606     2.524
    68   1          0.925     0.039     2.466     2.456
    69   1          0.924     0.027     2.631     2.537
    70   1          0.925     0.032     2.553     2.499
    71   1          0.924     0.025     2.656     2.549
    72   1          0.925     0.032     2.559     2.502
    73   1          0.925     0.039     2.466     2.456
    74   1          0.925     0.035     2.511     2.478

 Mol. C6AA /au·bohr⁶  :      41506.779230
 Mol. C8AA /au·bohr⁸  :     908821.833756
 Mol. α(0) /au        :        302.725738


Wiberg/Mayer (AO) data.
largest (>0.10) Wiberg bond orders for each atom

 ---------------------------------------------------------------------------
     #   Z sym  total        # sym  WBO       # sym  WBO       # sym  WBO
 ---------------------------------------------------------------------------
     1   6      3.996 --     2      1.008    30      0.987    31      0.987
                            29      0.987
     2   6      3.996 --     3      1.010     1      1.008     4      0.996
                            32      0.969
     3   6      3.997 --     2      1.010    33      0.987    34      0.986
                            35      0.984
     4   6      3.996 --     5      1.007     2      0.996    37      0.977
                            36      0.976
     5   6      3.997 --     6      1.007     4      1.007    39      0.977
                            38      0.970
     6   6      3.995 --     5      1.007     7      0.992    41      0.977
                            40      0.973
     7   6      3.994 --     8      1.009     6      0.992     9      0.988
                            42      0.965
     8   6      3.997 --     7      1.009    43      0.987    44      0.980
                            45      0.979
     9   6      3.991 --     7      0.988    10      0.988    27      0.968
                            46      0.968
    10   6      3.997 --    11      1.000     9      0.988    48      0.983
                            47      0.979
    11   6      3.997 --    10      1.000    12      0.996    50      0.981
                            49      0.979
    12   6      3.992 --    11      0.996    13      0.989    27      0.967
                            51      0.963
    13   6      3.995 --    14      0.993    12      0.989    24      0.984
                            52      0.960
    14   6      3.997 --    15      1.025    13      0.993    53      0.966
                            54      0.955
    15   6      3.989 --    16      1.885    14      1.025    55      0.964
    16   6      3.985 --    15      1.885    17      1.008    22      0.985
    17   6      3.996 --    16      1.008    18      0.977    57      0.973
                            56      0.958
    18   6      3.953 --    20      0.989    19      0.988    17      0.977
                            58      0.963
    19   8      1.965 --    18      0.988    59      0.902
    20   6      3.997 --    21      1.007    18      0.989    61      0.975
                            60      0.973
    21   6      3.996 --    20      1.007    22      0.976    63      0.975
                            62      0.971
    22   6      3.990 --    23      0.987    16      0.985    21      0.976
                            24      0.968
    23   6      3.997 --    22      0.987    66      0.982    65      0.982
                            64      0.980
    24   6      3.993 --    25      0.998    13      0.984    22      0.968
                            67      0.964
    25   6      3.996 --    26      1.003    24      0.998    69      0.973
                            68      0.971
    26   6      3.997 --    25      1.003    27      0.990    71      0.975
                            70      0.970
    27   6      3.989 --    28      1.001    26      0.990     9      0.968
                            12      0.967
    28   6      3.997 --    27      1.001    73      0.983    72      0.982
                            74      0.978
    29   1      0.999 --     1      0.987
    30   1      0.999 --     1      0.987
    31   1      0.999 --     1      0.987
    32   1      0.999 --     2      0.969
    33   1      0.999 --     3      0.987
    34   1      0.999 --     3      0.986
    35   1      0.999 --     3      0.984
    36   1      0.999 --     4      0.976
    37   1      0.999 --     4      0.977
    38   1      0.999 --     5      0.970
    39   1      0.999 --     5      0.977
    40   1      0.999 --     6      0.973
    41   1      0.999 --     6      0.977
    42   1      0.999 --     7      0.965
    43   1      0.999 --     8      0.987
    44   1      0.998 --     8      0.980
    45   1      0.999 --     8      0.979
    46   1      0.999 --     9      0.968
    47   1      0.999 --    10      0.979
    48   1      0.999 --    10      0.983
    49   1      0.999 --    11      0.979
    50   1      0.999 --    11      0.981
    51   1      0.999 --    12      0.963
    52   1      0.999 --    13      0.960
    53   1      0.998 --    14      0.966
    54   1      0.998 --    14      0.955
    55   1      0.998 --    15      0.964
    56   1      0.999 --    17      0.958
    57   1      0.998 --    17      0.973
    58   1      0.998 --    18      0.963
    59   1      0.920 --    19      0.902
    60   1      0.999 --    20      0.973
    61   1      0.998 --    20      0.975
    62   1      0.998 --    21      0.971
    63   1      0.999 --    21      0.975
    64   1      0.999 --    23      0.980
    65   1      0.998 --    23      0.982
    66   1      0.999 --    23      0.982
    67   1      0.999 --    24      0.964
    68   1      0.998 --    25      0.971
    69   1      0.999 --    25      0.973
    70   1      0.998 --    26      0.970
    71   1      0.999 --    26      0.975
    72   1      0.999 --    28      0.982
    73   1      0.998 --    28      0.983
    74   1      0.999 --    28      0.978
 ---------------------------------------------------------------------------

Topologies differ in total number of bonds
Writing topology from bond orders to xtbtopo.mol

molecular dipole:
                 x           y           z       tot (Debye)
 q only:       -0.464       0.066      -0.615
   full:       -0.603       0.062      -0.674       2.304
molecular quadrupole (traceless):
                xx          xy          yy          xz          yz          zz
 q only:        1.425       9.998      16.966     -27.252      10.857     -18.391
  q+dip:        3.590      13.386      19.797     -33.685      13.795     -23.387
   full:        1.899      13.446      20.107     -34.036      12.621     -22.006

           -------------------------------------------------
          |                Geometry Summary                 |
           -------------------------------------------------

      molecular mass/u    :      386.6545487
   center of mass at/Å    :        6.3136361      -1.8244438       5.7515626
  moments of inertia/u·Å² :        0.7802885E+03   0.9556677E+04   0.9960561E+04
rotational constants/cm⁻¹ :        0.2160436E-01   0.1763964E-02   0.1692438E-02

 * 70 selected distances

     #   Z          #   Z                                           value/Å
     1   6          2   6                                         1.5280251
     2   6          3   6                                         1.5270563
     2   6          4   6                                         1.5331118
     4   6          5   6                                         1.5276541
     5   6          6   6                                         1.5285989
     6   6          7   6                                         1.5385321
     7   6          8   6                                         1.5281303
     7   6          9   6                                         1.5393307
    10   6         11   6                                         1.5387702
    11   6         12   6                                         1.5246839
    12   6         13   6                                         1.5251598
    13   6         14   6                                         1.5281342
    15   6         16   6                                         1.3251501
    17   6         18   6                                         1.5322693
    18   6         19   8                                         1.4105902
    18   6         20   6                                         1.5273608
    20   6         21   6                                         1.5239830
    22   6         23   6                                         1.5367968
    13   6         24   6                                         1.5368439
    24   6         25   6                                         1.5339566
    25   6         26   6                                         1.5308949
    12   6         27   6                                         1.5403729 (max)
    26   6         27   6                                         1.5295265
    27   6         28   6                                         1.5303993
     1   6         29   1                                         1.0878197
     1   6         30   1                                         1.0881722
     1   6         31   1                                         1.0878105
     2   6         32   1                                         1.0961998
     3   6         33   1                                         1.0882296
     3   6         34   1                                         1.0879679
     3   6         35   1                                         1.0866520
     4   6         36   1                                         1.0933052
     4   6         37   1                                         1.0928900
     5   6         38   1                                         1.0898667
     5   6         39   1                                         1.0932151
     6   6         40   1                                         1.0900121
     6   6         41   1                                         1.0926594
     7   6         42   1                                         1.0944914
     8   6         43   1                                         1.0877696
     8   6         44   1                                         1.0866512
     8   6         45   1                                         1.0852760
     9   6         46   1                                         1.0961071
    10   6         47   1                                         1.0902702
    10   6         48   1                                         1.0894866
    11   6         49   1                                         1.0902576
    11   6         50   1                                         1.0891867
    12   6         51   1                                         1.0978230
    13   6         52   1                                         1.0924012
    14   6         53   1                                         1.0927327
    14   6         54   1                                         1.0961789
    15   6         55   1                                         1.0828224
    17   6         56   1                                         1.0957484
    17   6         57   1                                         1.0913788
    18   6         58   1                                         1.0954233
    19   8         59   1                                         0.9643756 (min)
    20   6         60   1                                         1.0931138
    20   6         61   1                                         1.0922115
    21   6         62   1                                         1.0909046
    21   6         63   1                                         1.0928427
    23   6         64   1                                         1.0858385
    23   6         65   1                                         1.0868525
    23   6         66   1                                         1.0868598
    24   6         67   1                                         1.0973514
    25   6         68   1                                         1.0882241
    25   6         69   1                                         1.0912670
    26   6         70   1                                         1.0893551
    26   6         71   1                                         1.0929463
    28   6         72   1                                         1.0872130
    28   6         73   1                                         1.0852582
    28   6         74   1                                         1.0851509

 * 4 distinct bonds (by element types)

   Z      Z             #   av. dist./Å        max./Å        min./Å
   1 H    6 C          45     1.0905377     1.0978230     1.0828224
   6 C    6 C          23     1.5223801     1.5403729     1.3251501
   1 H    8 O           1     0.9643756     0.9643756     0.9643756
   6 C    8 O           1     1.4105902     1.4105902     1.4105902


optimized geometry written to: xtbopt.xyz


           -------------------------------------------------
          | TOTAL ENERGY              -85.430929808137 Eh   |
          | GRADIENT NORM               0.000517546450 Eh/α |
          | HOMO-LUMO GAP               5.019315292392 eV   |
           -------------------------------------------------

------------------------------------------------------------------------
 * finished run on 2026/08/28 at 19:10:53.798     
------------------------------------------------------------------------
 total:
 * wall-time:     0 d,  0 h,  0 min,  3.831 sec
 *  cpu-time:     0 d,  0 h,  0 min,  3.595 sec
 * ratio c/w:     0.938 speedup
 SCF:
 * wall-time:     0 d,  0 h,  0 min,  0.261 sec
 *  cpu-time:     0 d,  0 h,  0 min,  0.254 sec
 * ratio c/w:     0.973 speedup
 ANC optimizer:
 * wall-time:     0 d,  0 h,  0 min,  3.537 sec
 *  cpu-time:     0 d,  0 h,  0 min,  3.314 sec
Note: The following floating-point exceptions are signalling: IEEE_UNDERFLOW_FLAG
normal termination of xtb
 * ratio c/w:     0.937 speedup

