      -----------------------------------------------------------      
     |                   =====================                   |     
     |                           x T B                           |     
     |                   =====================                   |     
     |                         S. Grimme                         |     
     |          Mulliken Center for Theoretical Chemistry        |     
     |                    University of Bonn                     |     
      -----------------------------------------------------------      

   * xtb version 6.7.1 (unknown) compiled by 'root@buildkitsandbox' on 2026-08-28

   xtb is free software: you can redistribute it and/or modify it under
   the terms of the GNU Lesser General Public License as published by
   the Free Software Foundation, either version 3 of the License, or
   (at your option) any later version.
   
   xtb is distributed in the hope that it will be useful,
   but WITHOUT ANY WARRANTY; without even the implied warranty of
   MERCHANTABILITY or FITNESS FOR A PARTICULAR PURPOSE.  See the
   GNU Lesser General Public License for more details.
   
   Cite this work as:
   * C. Bannwarth, E. Caldeweyher, S. Ehlert, A. Hansen, P. Pracht,
     J. Seibert, S. Spicher, S. Grimme, WIREs Comput. Mol. Sci., 2020, 11,
     e01493. DOI: 10.1002/wcms.1493
   
   for GFN2-xTB:
   * C. Bannwarth, S. Ehlert and S. Grimme., J. Chem. Theory Comput., 2019,
     15, 1652-1671. DOI: 10.1021/acs.jctc.8b01176
   for GFN1-xTB:
   * S. Grimme, C. Bannwarth, P. Shushkov, J. Chem. Theory Comput., 2017,
     13, 1989-2009. DOI: 10.1021/acs.jctc.7b00118
   for GFN0-xTB:
   * P. Pracht, E. Caldeweyher, S. Ehlert, S. Grimme, ChemRxiv, 2019, preprint.
     DOI: 10.26434/chemrxiv.8326202.v1
   for GFN-FF:
   * S. Spicher and S. Grimme, Angew. Chem. Int. Ed., 2020, 59, 15665-15673.
     DOI: 10.1002/anie.202004239
   
   for ALPB and GBSA implicit solvation:
   * S. Ehlert, M. Stahn, S. Spicher, S. Grimme, J. Chem. Theory Comput.,
     2021, 17, 4250-4261. DOI: 10.1021/acs.jctc.1c00471
   
   for ddCOSMO and CPCM-X implicit solvation:
   * M. Stahn, S. Ehlert, S. Grimme, J. Phys. Chem. A,
     2023, XX, XXXX-XXXX. DOI: 10.1021/acs.jpca.3c04382
   
   for DFT-D4:
   * E. Caldeweyher, C. Bannwarth and S. Grimme, J. Chem. Phys., 2017,
     147, 034112. DOI: 10.1063/1.4993215
   * E. Caldeweyher, S. Ehlert, A. Hansen, H. Neugebauer, S. Spicher,
     C. Bannwarth and S. Grimme, J. Chem. Phys., 2019, 150, 154122.
     DOI: 10.1063/1.5090222
   * E. Caldeweyher, J.-M. Mewes, S. Ehlert and S. Grimme, Phys. Chem. Chem. Phys.
     2020, 22, 8499-8512. DOI: 10.1039/D0CP00502A
   
   for sTDA-xTB:
   * S. Grimme and C. Bannwarth, J. Chem. Phys., 2016, 145, 054103.
     DOI: 10.1063/1.4959605
   
   in the mass-spec context:
   * V. Asgeirsson, C. Bauer and S. Grimme, Chem. Sci., 2017, 8, 4879.
     DOI: 10.1039/c7sc00601b
   * J. Koopman and S. Grimme, ACS Omega 2019, 4, 12, 15120-15133.
     DOI: 10.1021/acsomega.9b02011
   
   for metadynamics refer to:
   * S. Grimme, J. Chem. Theory Comput., 2019, 155, 2847-2862
     DOI: 10.1021/acs.jctc.9b00143
   
   for SPH calculations refer to:
   * S. Spicher and S. Grimme, J. Chem. Theory Comput., 2021, 17, 1701-1714
     DOI: 10.1021/acs.jctc.0c01306
   
   for ONIOM refer to:
   * C. Plett, A. Katbashev, S. Ehlert, S. Grimme, M. Bursch,
     Phys. Chem. Chem. Phys., 2023, 25, 17860-17868. DOI: 10.1039/D3CP02178E
   
   for DIPRO refer to:
   * J. Kohn, N. Gildemeister, S. Grimme, D. Fazzi, A. Hansen,
     J. Chem. Phys. 159, 144106 (2023). DOI: 10.1063/5.0167484
   
   for PTB refer to:
   * S. Grimme, M. Mueller, A. Hansen, J. Chem. Phys., 2023, 158, 124111.
     DOI: 10.1063/5.0137838
   
   with help from (in alphabetical order)
   P. Atkinson, C. Bannwarth, F. Bohle, G. Brandenburg, E. Caldeweyher,
   M. Checinski, S. Dohm, S. Ehlert, S. Ehrlich, M. Friede, T. Froitzheim,
   I. Gerasimov, C. Hölzer, A. Katbashev, J. Kohn, J. Koopman, C. Lavigne,
   S. Lehtola, F. März, M. Müller, F. Musil, H. Neugebauer, J. Pisarek,
   C. Plett, P. Pracht, F. Pultar, J. Seibert, P. Shushkov, S. Spicher,
   M. Stahn, M. Steiner, T. Strunk, J. Stückrath, T. Rose, and J. Unsleber
   
 * started run on 2026/08/28 at 19:20:13.059     
   ID    Z sym.   atoms
    1    6 C      1-18, 20-28
    2    8 O      19
    3    1 H      29-74

           -------------------------------------------------
          |                Calculation Setup                |
           -------------------------------------------------

          program call               : xtb opt.xyz --gfn 2 --hess --norestart
          hostname                   : 756d39058c4f
          coordinate file            : opt.xyz
          random seed                :             500659317


           -------------------------------------------------
          |                 G F N 2 - x T B                 |
           -------------------------------------------------

        Reference                      10.1021/acs.jctc.8b01176
      * Hamiltonian:
        H0-scaling (s, p, d)           1.850000    2.230000    2.230000
        zeta-weighting                 0.500000
      * Dispersion:
        s8                             2.700000
        a1                             0.520000
        a2                             5.000000
        s9                             5.000000
      * Repulsion:
        kExp                           1.500000    1.000000
        rExp                           1.000000
      * Coulomb:
        alpha                          2.000000
        third order                    shell-resolved
        anisotropic                    true
        a3                             3.000000
        a5                             4.000000
        cn-shift                       1.200000
        cn-exp                         4.000000
        max-rad                        5.000000


          ...................................................
          :                      SETUP                      :
          :.................................................:
          :  # basis functions                 158          :
          :  # atomic orbitals                 158          :
          :  # shells                          102          :
          :  # electrons                       160          :
          :  max. iterations                   250          :
          :  Hamiltonian                  GFN2-xTB          :
          :  restarted?                      false          :
          :  GBSA solvation                  false          :
          :  PC potential                    false          :
          :  electronic temp.          300.0000000     K    :
          :  accuracy                    1.0000000          :
          :  -> integral cutoff          0.2500000E+02      :
          :  -> integral neglect         0.1000000E-07      :
          :  -> SCF convergence          0.1000000E-05 Eh   :
          :  -> wf. convergence          0.1000000E-03 e    :
          :  Broyden damping             0.4000000          :
          :  net charge                          0          :
          :  unpaired electrons                  0          :
          ...................................................

 iter      E             dE          RMSdq      gap      omega  full diag
   1    -86.5079468 -0.865079E+02  0.269E+00    5.10       0.0  T
   2    -86.6448929 -0.136946E+00  0.154E+00    5.05       1.0  T
   3    -86.6466139 -0.172100E-02  0.692E-01    5.01       1.0  T
   4    -86.6433393  0.327459E-02  0.342E-01    5.03       1.0  T
   5    -86.6494590 -0.611968E-02  0.780E-02    5.02       1.0  T
   6    -86.6495736 -0.114631E-03  0.413E-02    5.02       1.0  T
   7    -86.6495830 -0.934603E-05  0.588E-03    5.02       2.0  T
   8    -86.6495838 -0.785246E-06  0.216E-03    5.02       5.4  T
   9    -86.6495838 -0.381709E-07  0.871E-04    5.02      13.4  T
  10    -86.6495838 -0.776039E-08  0.269E-04    5.02      43.2  T

   *** convergence criteria satisfied after 10 iterations ***

         #    Occupation            Energy/Eh            Energy/eV
      -------------------------------------------------------------
         1        2.0000           -0.6828141             -18.5803
       ...           ...                  ...                  ...
        74        2.0000           -0.4102031             -11.1622
        75        2.0000           -0.4079854             -11.1018
        76        2.0000           -0.4046902             -11.0122
        77        2.0000           -0.4039443             -10.9919
        78        2.0000           -0.3936187             -10.7109
        79        2.0000           -0.3873932             -10.5415
        80        2.0000           -0.3742056             -10.1827 (HOMO)
        81                         -0.1897494              -5.1633 (LUMO)
        82                          0.0102116               0.2779
        83                          0.0234373               0.6378
        84                          0.0323156               0.8794
        85                          0.0449495               1.2231
       ...                                ...                  ...
       158                          0.6522088              17.7475
      -------------------------------------------------------------
                  HL-Gap            0.1844563 Eh            5.0193 eV
             Fermi-level           -0.2819775 Eh           -7.6730 eV

 SCC (total)                   0 d,  0 h,  0 min,  0.186 sec
 SCC setup                      ...        0 min,  0.000 sec (  0.140%)
 Dispersion                     ...        0 min,  0.001 sec (  0.313%)
 classical contributions        ...        0 min,  0.000 sec (  0.073%)
 integral evaluation            ...        0 min,  0.017 sec (  9.371%)
 iterations                     ...        0 min,  0.124 sec ( 66.809%)
 molecular gradient             ...        0 min,  0.041 sec ( 22.250%)
 printout                       ...        0 min,  0.002 sec (  1.036%)

         :::::::::::::::::::::::::::::::::::::::::::::::::::::
         ::                     SUMMARY                     ::
         :::::::::::::::::::::::::::::::::::::::::::::::::::::
         :: total energy             -85.430929807660 Eh    ::
         :: gradient norm              0.000517987564 Eh/a0 ::
         :: HOMO-LUMO gap              5.019310402644 eV    ::
         ::.................................................::
         :: SCC energy               -86.648727347612 Eh    ::
         :: -> isotropic ES            0.036493020876 Eh    ::
         :: -> anisotropic ES          0.022628471304 Eh    ::
         :: -> anisotropic XC          0.040330751005 Eh    ::
         :: -> dispersion             -0.078233020737 Eh    ::
         :: repulsion energy           1.217797539952 Eh    ::
         :: add. restraining           0.000000000000 Eh    ::
         :: total charge              -0.000000000000 e     ::
         :::::::::::::::::::::::::::::::::::::::::::::::::::::

           ------------------------------------------------- 
          |                Numerical Hessian                |
           ------------------------------------------------- 
step length          :   0.00500
SCC accuracy         :   0.30000
Hessian scale factor :   1.00000
frozen atoms in %    :   0.00000    0
RMS gradient         :   0.00052
estimated CPU  time      0.98 min
estimated wall time      0.98 min

writing file <hessian>, containing the non-mass-weighted Hessian matrix in atomic units (Eₕ/Bohr²).

 projected vibrational frequencies (cm⁻¹)
eigval :       -0.00    -0.00     0.00     0.00     0.00     0.00
eigval :       13.86    18.16    28.73    40.15    52.85    71.85
eigval :       76.25    78.96    98.04   107.44   113.82   137.87
eigval :      162.80   173.53   175.76   203.34   204.89   211.15
eigval :      221.38   228.60   239.98   245.21   249.65   269.07
eigval :      273.31   286.67   288.87   302.70   313.72   316.85
eigval :      334.71   346.68   364.88   374.06   377.48   399.35
eigval :      413.18   423.94   427.29   448.56   455.78   460.08
eigval :      469.57   486.52   498.84   515.51   547.35   566.16
eigval :      580.23   604.52   620.49   642.70   706.16   758.03
eigval :      770.53   771.82   819.74   838.89   842.01   860.82
eigval :      870.15   878.84   887.20   890.84   902.73   912.38
eigval :      938.82   943.89   945.96   954.17   962.56   970.54
eigval :      973.70   981.03   990.90  1002.02  1012.60  1021.66
eigval :     1024.79  1037.05  1046.25  1053.64  1055.90  1059.95
eigval :     1070.02  1075.14  1079.68  1081.58  1099.52  1101.83
eigval :     1107.05  1109.85  1119.95  1128.30  1130.96  1140.77
eigval :     1142.82  1147.15  1150.56  1154.22  1160.23  1166.06
eigval :     1175.19  1179.89  1187.49  1193.95  1197.37  1203.60
eigval :     1207.02  1216.74  1220.96  1228.69  1242.97  1247.87
eigval :     1251.90  1256.93  1267.84  1274.25  1281.84  1282.34
eigval :     1289.40  1291.08  1295.55  1299.04  1309.50  1314.94
eigval :     1315.69  1316.76  1329.84  1334.41  1335.24  1338.86
eigval :     1341.12  1343.07  1347.03  1349.09  1356.45  1360.79
eigval :     1364.75  1367.71  1371.52  1375.94  1388.21  1407.79
eigval :     1410.30  1411.61  1419.64  1423.08  1478.62  1479.35
eigval :     1481.27  1486.25  1486.58  1488.43  1491.80  1493.66
eigval :     1496.49  1498.48  1501.54  1503.82  1507.17  1507.95
eigval :     1508.97  1509.20  1513.70  1516.44  1518.39  1522.01
eigval :     1525.02  1743.91  2896.08  2905.15  2914.48  2915.76
eigval :     2920.36  2923.17  2938.53  2941.72  2953.10  2956.85
eigval :     2957.72  2960.05  2961.33  2966.15  2968.91  2970.39
eigval :     2973.20  2975.39  2976.70  2981.02  2988.01  2989.68
eigval :     2991.47  2995.50  2996.80  3003.80  3006.36  3008.44
eigval :     3019.42  3024.28  3026.03  3029.24  3031.03  3032.66
eigval :     3035.26  3035.59  3036.48  3039.66  3042.43  3043.89
eigval :     3045.84  3054.86  3056.45  3059.80  3065.82  3532.35
           -------------------------------------------------
          |                Property Printout                |
           -------------------------------------------------

    * Orbital Energies and Occupations

         #    Occupation            Energy/Eh            Energy/eV
      -------------------------------------------------------------
         1        2.0000           -0.6828075             -18.5801
       ...           ...                  ...                  ...
        68        2.0000           -0.4250225             -11.5655
        69        2.0000           -0.4229961             -11.5103
        70        2.0000           -0.4197380             -11.4217
        71        2.0000           -0.4176016             -11.3635
        72        2.0000           -0.4156859             -11.3114
        73        2.0000           -0.4117235             -11.2036
        74        2.0000           -0.4102032             -11.1622
        75        2.0000           -0.4079854             -11.1018
        76        2.0000           -0.4046887             -11.0121
        77        2.0000           -0.4039444             -10.9919
        78        2.0000           -0.3936181             -10.7109
        79        2.0000           -0.3873931             -10.5415
        80        2.0000           -0.3742042             -10.1826 (HOMO)
        81                         -0.1897478              -5.1633 (LUMO)
        82                          0.0102116               0.2779
        83                          0.0234374               0.6378
        84                          0.0323167               0.8794
        85                          0.0449495               1.2231
        86                          0.0530489               1.4435
        87                          0.0561595               1.5282
        88                          0.0684742               1.8633
        89                          0.0771595               2.0996
        90                          0.0846653               2.3039
        91                          0.0894617               2.4344
       ...                                ...                  ...
       158                          0.6522103              17.7475
      -------------------------------------------------------------
                  HL-Gap            0.1844564 Eh            5.0193 eV
             Fermi-level           -0.2819760 Eh           -7.6730 eV

     #   Z          covCN         q      C6AA      α(0)
     1   6          3.757    -0.106    22.581     6.775
     2   6          3.849    -0.010    20.722     6.475
     3   6          3.756    -0.105    22.559     6.772
     4   6          3.806    -0.063    21.714     6.634
     5   6          3.801    -0.056    21.589     6.615
     6   6          3.807    -0.066    21.755     6.640
     7   6          3.849    -0.018    20.861     6.496
     8   6          3.755    -0.104    22.540     6.769
     9   6          3.880    -0.031    21.075     6.527
    10   6          3.824    -0.060    21.630     6.618
    11   6          3.818    -0.059    21.627     6.619
    12   6          3.907    -0.026    20.985     6.511
    13   6          3.857    -0.021    20.904     6.502
    14   6          3.812    -0.058    21.609     6.617
    15   6          2.899    -0.054    29.339     8.881
    16   6          2.953    -0.009    28.234     8.715
    17   6          3.813    -0.074    21.903     6.661
    18   6          3.730     0.115    18.787     6.187
    19   8          1.655    -0.448    21.804     6.304
    20   6          3.805    -0.069    21.822     6.650
    21   6          3.812    -0.062    21.673     6.626
    22   6          3.904     0.013    20.296     6.404
    23   6          3.758    -0.101    22.478     6.759
    24   6          3.862    -0.027    21.015     6.519
    25   6          3.804    -0.062    21.690     6.630
    26   6          3.811    -0.061    21.663     6.625
    27   6          3.925     0.014    20.280     6.400
    28   6          3.756    -0.105    22.556     6.772
    29   1          0.925     0.033     2.539     2.492
    30   1          0.925     0.034     2.525     2.485
    31   1          0.925     0.031     2.570     2.507
    32   1          0.924     0.026     2.647     2.544
    33   1          0.925     0.034     2.526     2.485
    34   1          0.925     0.032     2.558     2.501
    35   1          0.925     0.032     2.551     2.498
    36   1          0.924     0.029     2.602     2.523
    37   1          0.924     0.031     2.570     2.507
    38   1          0.925     0.031     2.573     2.508
    39   1          0.924     0.026     2.647     2.544
    40   1          0.925     0.033     2.543     2.494
    41   1          0.924     0.030     2.591     2.517
    42   1          0.924     0.031     2.567     2.506
    43   1          0.925     0.032     2.552     2.498
    44   1          0.925     0.035     2.521     2.483
    45   1          0.925     0.032     2.560     2.502
    46   1          0.924     0.025     2.658     2.549
    47   1          0.924     0.029     2.601     2.522
    48   1          0.925     0.026     2.651     2.546
    49   1          0.924     0.029     2.605     2.524
    50   1          0.925     0.025     2.656     2.549
    51   1          0.924     0.027     2.630     2.536
    52   1          0.924     0.030     2.586     2.515
    53   1          0.924     0.036     2.507     2.476
    54   1          0.924     0.037     2.484     2.465
    55   1          0.925     0.023     2.682     2.561
    56   1          0.924     0.033     2.548     2.496
    57   1          0.924     0.040     2.443     2.445
    58   1          0.924     0.041     2.440     2.443
    59   1          0.805     0.283     0.774     1.382
    60   1          0.924     0.031     2.573     2.509
    61   1          0.924     0.037     2.485     2.465
    62   1          0.924     0.035     2.515     2.480
    63   1          0.924     0.031     2.579     2.511
    64   1          0.925     0.034     2.528     2.486
    65   1          0.925     0.036     2.508     2.477
    66   1          0.925     0.034     2.534     2.490
    67   1          0.924     0.029     2.606     2.524
    68   1          0.925     0.039     2.466     2.456
    69   1          0.924     0.027     2.631     2.537
    70   1          0.925     0.032     2.553     2.499
    71   1          0.924     0.025     2.656     2.549
    72   1          0.925     0.032     2.559     2.502
    73   1          0.925     0.039     2.466     2.456
    74   1          0.925     0.035     2.511     2.478

 Mol. C6AA /au·bohr⁶  :      41506.775718
 Mol. C8AA /au·bohr⁸  :     908821.795585
 Mol. α(0) /au        :        302.725723


Wiberg/Mayer (AO) data.
largest (>0.10) Wiberg bond orders for each atom

 ---------------------------------------------------------------------------
     #   Z sym  total        # sym  WBO       # sym  WBO       # sym  WBO
 ---------------------------------------------------------------------------
     1   6      3.996 --     2      1.008    30      0.987    31      0.987
                            29      0.987
     2   6      3.996 --     3      1.010     1      1.008     4      0.996
                            32      0.969
     3   6      3.997 --     2      1.010    33      0.987    34      0.986
                            35      0.984
     4   6      3.996 --     5      1.007     2      0.996    37      0.977
                            36      0.976
     5   6      3.997 --     6      1.007     4      1.007    39      0.977
                            38      0.970
     6   6      3.995 --     5      1.007     7      0.992    41      0.977
                            40      0.973
     7   6      3.994 --     8      1.009     6      0.992     9      0.988
                            42      0.965
     8   6      3.997 --     7      1.009    43      0.987    44      0.980
                            45      0.979
     9   6      3.991 --     7      0.988    10      0.988    27      0.968
                            46      0.968
    10   6      3.997 --    11      1.000     9      0.988    48      0.983
                            47      0.979
    11   6      3.997 --    10      1.000    12      0.996    50      0.981
                            49      0.979
    12   6      3.992 --    11      0.996    13      0.989    27      0.967
                            51      0.963
    13   6      3.995 --    14      0.993    12      0.989    24      0.984
                            52      0.960
    14   6      3.997 --    15      1.025    13      0.993    53      0.966
                            54      0.955
    15   6      3.989 --    16      1.885    14      1.025    55      0.964
    16   6      3.985 --    15      1.885    17      1.008    22      0.985
    17   6      3.996 --    16      1.008    18      0.977    57      0.973
                            56      0.958
    18   6      3.953 --    20      0.989    19      0.988    17      0.977
                            58      0.963
    19   8      1.965 --    18      0.988    59      0.902
    20   6      3.997 --    21      1.007    18      0.989    61      0.975
                            60      0.973
    21   6      3.996 --    20      1.007    22      0.976    63      0.975
                            62      0.971
    22   6      3.990 --    23      0.987    16      0.985    21      0.976
                            24      0.968
    23   6      3.997 --    22      0.987    66      0.982    65      0.982
                            64      0.980
    24   6      3.993 --    25      0.998    13      0.984    22      0.968
                            67      0.964
    25   6      3.996 --    26      1.003    24      0.998    69      0.973
                            68      0.971
    26   6      3.997 --    25      1.003    27      0.990    71      0.975
                            70      0.970
    27   6      3.989 --    28      1.001    26      0.990     9      0.968
                            12      0.967
    28   6      3.997 --    27      1.001    73      0.983    72      0.982
                            74      0.978
    29   1      0.999 --     1      0.987
    30   1      0.999 --     1      0.987
    31   1      0.999 --     1      0.987
    32   1      0.999 --     2      0.969
    33   1      0.999 --     3      0.987
    34   1      0.999 --     3      0.986
    35   1      0.999 --     3      0.984
    36   1      0.999 --     4      0.976
    37   1      0.999 --     4      0.977
    38   1      0.999 --     5      0.970
    39   1      0.999 --     5      0.977
    40   1      0.999 --     6      0.973
    41   1      0.999 --     6      0.977
    42   1      0.999 --     7      0.965
    43   1      0.999 --     8      0.987
    44   1      0.998 --     8      0.980
    45   1      0.999 --     8      0.979
    46   1      0.999 --     9      0.968
    47   1      0.999 --    10      0.979
    48   1      0.999 --    10      0.983
    49   1      0.999 --    11      0.979
    50   1      0.999 --    11      0.981
    51   1      0.999 --    12      0.963
    52   1      0.999 --    13      0.960
    53   1      0.998 --    14      0.966
    54   1      0.998 --    14      0.955
    55   1      0.998 --    15      0.964
    56   1      0.999 --    17      0.958
    57   1      0.998 --    17      0.973
    58   1      0.998 --    18      0.963
    59   1      0.920 --    19      0.902
    60   1      0.999 --    20      0.973
    61   1      0.998 --    20      0.975
    62   1      0.998 --    21      0.971
    63   1      0.999 --    21      0.975
    64   1      0.999 --    23      0.980
    65   1      0.998 --    23      0.982
    66   1      0.999 --    23      0.982
    67   1      0.999 --    24      0.964
    68   1      0.998 --    25      0.971
    69   1      0.999 --    25      0.973
    70   1      0.998 --    26      0.970
    71   1      0.999 --    26      0.975
    72   1      0.999 --    28      0.982
    73   1      0.998 --    28      0.983
    74   1      0.999 --    28      0.978
 ---------------------------------------------------------------------------

Topologies differ in total number of bonds
Writing topology from bond orders to xtbtopo.mol

molecular dipole:
                 x           y           z       tot (Debye)
 q only:       -0.464       0.066      -0.615
   full:       -0.603       0.062      -0.674       2.304
molecular quadrupole (traceless):
                xx          xy          yy          xz          yz          zz
 q only:        1.425       9.998      16.967     -27.252      10.857     -18.392
  q+dip:        3.590      13.386      19.797     -33.685      13.795     -23.387
   full:        1.899      13.446      20.107     -34.036      12.621     -22.006

           -------------------------------------------------
          |               Frequency Printout                |
           -------------------------------------------------
 projected vibrational frequencies (cm⁻¹)
eigval :       -0.00    -0.00     0.00     0.00     0.00     0.00
eigval :       13.86    18.16    28.73    40.15    52.85    71.85
eigval :       76.25    78.96    98.04   107.44   113.82   137.87
eigval :      162.80   173.53   175.76   203.34   204.89   211.15
eigval :      221.38   228.60   239.98   245.21   249.65   269.07
eigval :      273.31   286.67   288.87   302.70   313.72   316.85
eigval :      334.71   346.68   364.88   374.06   377.48   399.35
eigval :      413.18   423.94   427.29   448.56   455.78   460.08
eigval :      469.57   486.52   498.84   515.51   547.35   566.16
eigval :      580.23   604.52   620.49   642.70   706.16   758.03
eigval :      770.53   771.82   819.74   838.89   842.01   860.82
eigval :      870.15   878.84   887.20   890.84   902.73   912.38
eigval :      938.82   943.89   945.96   954.17   962.56   970.54
eigval :      973.70   981.03   990.90  1002.02  1012.60  1021.66
eigval :     1024.79  1037.05  1046.25  1053.64  1055.90  1059.95
eigval :     1070.02  1075.14  1079.68  1081.58  1099.52  1101.83
eigval :     1107.05  1109.85  1119.95  1128.30  1130.96  1140.77
eigval :     1142.82  1147.15  1150.56  1154.22  1160.23  1166.06
eigval :     1175.19  1179.89  1187.49  1193.95  1197.37  1203.60
eigval :     1207.02  1216.74  1220.96  1228.69  1242.97  1247.87
eigval :     1251.90  1256.93  1267.84  1274.25  1281.84  1282.34
eigval :     1289.40  1291.08  1295.55  1299.04  1309.50  1314.94
eigval :     1315.69  1316.76  1329.84  1334.41  1335.24  1338.86
eigval :     1341.12  1343.07  1347.03  1349.09  1356.45  1360.79
eigval :     1364.75  1367.71  1371.52  1375.94  1388.21  1407.79
eigval :     1410.30  1411.61  1419.64  1423.08  1478.62  1479.35
eigval :     1481.27  1486.25  1486.58  1488.43  1491.80  1493.66
eigval :     1496.49  1498.48  1501.54  1503.82  1507.17  1507.95
eigval :     1508.97  1509.20  1513.70  1516.44  1518.39  1522.01
eigval :     1525.02  1743.91  2896.08  2905.15  2914.48  2915.76
eigval :     2920.36  2923.17  2938.53  2941.72  2953.10  2956.85
eigval :     2957.72  2960.05  2961.33  2966.15  2968.91  2970.39
eigval :     2973.20  2975.39  2976.70  2981.02  2988.01  2989.68
eigval :     2991.47  2995.50  2996.80  3003.80  3006.36  3008.44
eigval :     3019.42  3024.28  3026.03  3029.24  3031.03  3032.66
eigval :     3035.26  3035.59  3036.48  3039.66  3042.43  3043.89
eigval :     3045.84  3054.86  3056.45  3059.80  3065.82  3532.35
 reduced masses (amu)
    1:      4.29    2:      4.63    3:      5.27    4:      4.10    5:      5.20    6:      4.30
    7:      2.87    8:      3.40    9:      3.98   10:      3.59   11:      3.24   12:      3.29
   13:      2.71   14:      2.01   15:      3.10   16:      3.25   17:      2.87   18:      1.94
   19:      2.73   20:      1.70   21:      2.05   22:      1.15   23:      1.49   24:      1.76
   25:      1.98   26:      1.60   27:      1.71   28:      1.83   29:      2.08   30:      2.15
   31:      2.11   32:      2.16   33:      2.39   34:      2.56   35:      2.61   36:      1.59
   37:      2.63   38:      2.87   39:      2.05   40:      2.62   41:      2.43   42:      2.85
   43:      2.90   44:      2.74   45:      3.12   46:      3.69   47:      2.45   48:      2.41
   49:      2.50   50:      3.29   51:      3.21   52:      2.54   53:      2.71   54:      3.18
   55:      3.86   56:      3.17   57:      3.32   58:      2.86   59:      3.45   60:      3.03
   61:      1.19   62:      1.97   63:      1.29   64:      1.84   65:      1.56   66:      1.75
   67:      1.88   68:      1.89   69:      1.98   70:      2.37   71:      1.67   72:      1.66
   73:      1.81   74:      1.72   75:      1.18   76:      1.77   77:      1.68   78:      1.44
   79:      1.71   80:      1.39   81:      1.52   82:      1.75   83:      2.05   84:      2.13
   85:      2.08   86:      1.91   87:      1.96   88:      1.39   89:      2.13   90:      1.96
   91:      2.15   92:      2.92   93:      2.85   94:      2.14   95:      1.88   96:      2.64
   97:      2.63   98:      1.56   99:      2.06  100:      1.67  101:      2.40  102:      1.42
  103:      1.98  104:      1.43  105:      2.15  106:      2.21  107:      2.18  108:      1.87
  109:      1.94  110:      2.19  111:      1.80  112:      1.83  113:      2.06  114:      2.51
  115:      1.83  116:      2.10  117:      1.43  118:      1.42  119:      1.40  120:      1.37
  121:      1.42  122:      1.35  123:      1.38  124:      1.39  125:      1.32  126:      1.38
  127:      1.13  128:      1.34  129:      1.44  130:      1.35  131:      1.43  132:      1.41
  133:      1.37  134:      1.41  135:      1.35  136:      1.57  137:      1.45  138:      1.56
  139:      1.49  140:      1.39  141:      1.50  142:      1.43  143:      1.45  144:      1.48
  145:      1.46  146:      1.51  147:      1.36  148:      1.57  149:      1.42  150:      1.22
  151:      1.25  152:      1.25  153:      1.22  154:      1.22  155:      1.09  156:      1.09
  157:      1.09  158:      1.08  159:      1.08  160:      1.08  161:      1.08  162:      1.10
  163:      1.08  164:      1.09  165:      1.06  166:      1.07  167:      1.07  168:      1.07
  169:      1.07  170:      1.07  171:      1.05  172:      1.06  173:      1.06  174:      1.08
  175:      1.07  176:      9.25  177:      1.07  178:      1.07  179:      1.08  180:      1.08
  181:      1.08  182:      1.07  183:      1.07  184:      1.08  185:      1.09  186:      1.07
  187:      1.09  188:      1.08  189:      1.08  190:      1.06  191:      1.06  192:      1.10
  193:      1.09  194:      1.07  195:      1.07  196:      1.06  197:      1.06  198:      1.06
  199:      1.09  200:      1.06  201:      1.06  202:      1.07  203:      1.06  204:      1.06
  205:      1.07  206:      1.09  207:      1.09  208:      1.09  209:      1.08  210:      1.07
  211:      1.08  212:      1.08  213:      1.03  214:      1.09  215:      1.08  216:      1.08
  217:      1.05  218:      1.09  219:      1.04  220:      1.05  221:      1.04  222:      1.07
 IR intensities (km·mol⁻¹)
    1:      0.03    2:      0.01    3:      0.02    4:      0.05    5:      0.07    6:      0.04
    7:      0.05    8:      0.03    9:      0.08   10:      0.59   11:      0.17   12:      0.37
   13:      0.09   14:      0.36   15:      0.87   16:      0.14   17:      0.12   18:      0.04
   19:      0.03   20:      0.90   21:      0.29   22:      0.19   23:      0.56   24:      0.36
   25:      0.39   26:      0.32   27:      0.25   28:      0.13   29:      2.95   30:      1.15
   31:      1.63   32:      3.00   33:      3.90   34:      2.10   35:      0.16   36:     40.30
   37:      2.03   38:      1.85   39:     82.13   40:      4.02   41:      0.86   42:      0.77
   43:      0.44   44:      1.08   45:      0.66   46:      3.08   47:      1.96   48:      1.73
   49:      1.17   50:      2.26   51:      0.58   52:      0.13   53:      0.95   54:      0.99
   55:      1.21   56:      0.44   57:      1.24   58:      0.97   59:      0.91   60:      0.93
   61:      5.50   62:      0.96   63:      5.64   64:      2.19   65:      0.94   66:      0.27
   67:      3.52   68:      2.78   69:      0.53   70:      4.80   71:      2.94   72:      2.76
   73:      1.46   74:      1.52   75:      2.79   76:      2.84   77:     10.75   78:      1.93
   79:      9.52   80:      0.47   81:      4.96   82:      3.26   83:     16.01   84:      9.35
   85:      2.94   86:      0.37   87:     16.76   88:      0.48   89:      6.84   90:     11.34
   91:     19.83   92:      1.92   93:     67.70   94:     62.08   95:      0.49   96:      2.24
   97:      1.42   98:      4.13   99:      4.90  100:      1.59  101:      9.48  102:      1.08
  103:      0.99  104:      1.39  105:      3.06  106:      3.60  107:      4.72  108:      1.69
  109:      4.88  110:      5.11  111:      7.91  112:      4.70  113:      0.96  114:      5.16
  115:      2.11  116:      6.23  117:      1.21  118:      0.39  119:      4.23  120:      2.17
  121:     14.93  122:      6.99  123:      0.18  124:      0.65  125:      0.77  126:      0.49
  127:      1.25  128:      0.88  129:      2.33  130:      0.51  131:      3.46  132:      1.27
  133:      2.57  134:      0.94  135:      4.40  136:     15.78  137:     14.16  138:      3.64
  139:      4.66  140:     15.17  141:      0.43  142:      4.86  143:     38.24  144:     18.95
  145:     21.50  146:      0.75  147:      1.57  148:      0.89  149:      0.58  150:      0.85
  151:      4.16  152:      5.91  153:      3.67  154:      2.01  155:      1.95  156:      0.45
  157:      0.85  158:      0.12  159:      0.57  160:      0.84  161:      0.25  162:      0.83
  163:      0.34  164:      0.62  165:      0.31  166:      0.83  167:      1.85  168:      1.50
  169:      0.94  170:      2.90  171:      3.06  172:      0.14  173:      2.19  174:      1.21
  175:      2.65  176:      1.86  177:      9.42  178:     21.83  179:      3.30  180:     71.24
  181:     31.58  182:     35.68  183:     24.56  184:     26.66  185:     10.97  186:     20.76
  187:     11.00  188:     42.98  189:     15.30  190:     39.67  191:     27.79  192:    125.08
  193:      6.45  194:    106.85  195:     45.87  196:      9.86  197:     24.72  198:     86.26
  199:    112.63  200:      6.79  201:     41.28  202:     47.01  203:      3.78  204:    118.92
  205:     33.09  206:      1.25  207:     13.82  208:     81.61  209:     70.59  210:     75.57
  211:      9.16  212:     91.28  213:     49.02  214:     40.32  215:     29.69  216:     80.32
  217:     38.31  218:     38.44  219:     39.90  220:     34.55  221:     32.74  222:      4.18
 Raman intensities (Ä⁴*amu⁻¹)
    1:      0.00    2:      0.00    3:      0.00    4:      0.00    5:      0.00    6:      0.00
Refinement of some symmetry elements was terminated before convergence was reached.
Some symmetry elements may remain unidentified.
Molecule has no symmetry elements
It seems to be the C1 point group
    7:      0.00    8:      0.00    9:      0.00   10:      0.00   11:      0.00   12:      0.00
   13:      0.00   14:      0.00   15:      0.00   16:      0.00   17:      0.00   18:      0.00
   19:      0.00   20:      0.00   21:      0.00   22:      0.00   23:      0.00   24:      0.00
   25:      0.00   26:      0.00   27:      0.00   28:      0.00   29:      0.00   30:      0.00
   31:      0.00   32:      0.00   33:      0.00   34:      0.00   35:      0.00   36:      0.00
   37:      0.00   38:      0.00   39:      0.00   40:      0.00   41:      0.00   42:      0.00
   43:      0.00   44:      0.00   45:      0.00   46:      0.00   47:      0.00   48:      0.00
   49:      0.00   50:      0.00   51:      0.00   52:      0.00   53:      0.00   54:      0.00
   55:      0.00   56:      0.00   57:      0.00   58:      0.00   59:      0.00   60:      0.00
   61:      0.00   62:      0.00   63:      0.00   64:      0.00   65:      0.00   66:      0.00
   67:      0.00   68:      0.00   69:      0.00   70:      0.00   71:      0.00   72:      0.00
   73:      0.00   74:      0.00   75:      0.00   76:      0.00   77:      0.00   78:      0.00
   79:      0.00   80:      0.00   81:      0.00   82:      0.00   83:      0.00   84:      0.00
   85:      0.00   86:      0.00   87:      0.00   88:      0.00   89:      0.00   90:      0.00
   91:      0.00   92:      0.00   93:      0.00   94:      0.00   95:      0.00   96:      0.00
   97:      0.00   98:      0.00   99:      0.00  100:      0.00  101:      0.00  102:      0.00
  103:      0.00  104:      0.00  105:      0.00  106:      0.00  107:      0.00  108:      0.00
  109:      0.00  110:      0.00  111:      0.00  112:      0.00  113:      0.00  114:      0.00
  115:      0.00  116:      0.00  117:      0.00  118:      0.00  119:      0.00  120:      0.00
  121:      0.00  122:      0.00  123:      0.00  124:      0.00  125:      0.00  126:      0.00
  127:      0.00  128:      0.00  129:      0.00  130:      0.00  131:      0.00  132:      0.00
  133:      0.00  134:      0.00  135:      0.00  136:      0.00  137:      0.00  138:      0.00
  139:      0.00  140:      0.00  141:      0.00  142:      0.00  143:      0.00  144:      0.00
  145:      0.00  146:      0.00  147:      0.00  148:      0.00  149:      0.00  150:      0.00
  151:      0.00  152:      0.00  153:      0.00  154:      0.00  155:      0.00  156:      0.00
  157:      0.00  158:      0.00  159:      0.00  160:      0.00  161:      0.00  162:      0.00
  163:      0.00  164:      0.00  165:      0.00  166:      0.00  167:      0.00  168:      0.00
  169:      0.00  170:      0.00  171:      0.00  172:      0.00  173:      0.00  174:      0.00
  175:      0.00  176:      0.00  177:      0.00  178:      0.00  179:      0.00  180:      0.00
  181:      0.00  182:      0.00  183:      0.00  184:      0.00  185:      0.00  186:      0.00
  187:      0.00  188:      0.00  189:      0.00  190:      0.00  191:      0.00  192:      0.00
  193:      0.00  194:      0.00  195:      0.00  196:      0.00  197:      0.00  198:      0.00
  199:      0.00  200:      0.00  201:      0.00  202:      0.00  203:      0.00  204:      0.00
  205:      0.00  206:      0.00  207:      0.00  208:      0.00  209:      0.00  210:      0.00
  211:      0.00  212:      0.00  213:      0.00  214:      0.00  215:      0.00  216:      0.00
  217:      0.00  218:      0.00  219:      0.00  220:      0.00  221:      0.00  222:      0.00
 output can be read by thermo (or use thermo option).
 writing <g98.out> molden fake output.
 recommended (thermochemical) frequency scaling factor: 1.0
           -------------------------------------------------
          |             Thermodynamic Functions             |
           -------------------------------------------------

c1  symmetry found (for desy threshold:  0.10E+00) used in thermo

          ...................................................
          :                      SETUP                      :
          :.................................................:
          :  # frequencies                         216      :
          :  # imaginary freq.                       0      :
          :  linear?                             false      :
          :  only rotor calc.                    false      :
          :  symmetry                               c1      :
          :  rotational number                       1      :
          :  scaling factor                  1.0000000      :
          :  rotor cutoff                   50.0000000 cm⁻¹ :
          :  imag. cutoff                  -20.0000000 cm⁻¹ :
          :.................................................:

    mode    ω/cm⁻¹     T·S(HO)/kcal·mol⁻¹    T·S(FR)/kcal·mol⁻¹   T·S(vib)
   ------------------------------------------------------------------------
       1     13.86    -2.19505 (  0.59%)    -1.43653 ( 99.41%)    -1.44099
       2     18.16    -2.03515 (  1.71%)    -1.35656 ( 98.29%)    -1.36816
       3     28.73    -1.76373 (  9.82%)    -1.22072 ( 90.18%)    -1.27406
       4     40.15    -1.56573 ( 29.38%)    -1.12150 ( 70.62%)    -1.25199
       5     52.85    -1.40366 ( 55.51%)    -1.04013 ( 44.49%)    -1.24195
       6     71.85    -1.22300 ( 81.01%)    -0.94913 ( 18.99%)    -1.17098
       7     76.25    -1.18815 ( 84.40%)    -0.93152 ( 15.60%)    -1.14811
       8     78.96    -1.16772 ( 86.15%)    -0.92118 ( 13.85%)    -1.13357
       9     98.04    -1.04139 ( 93.66%)    -0.85705 (  6.34%)    -1.02971
      10    107.44    -0.98828 ( 95.52%)    -0.82995 (  4.48%)    -0.98118
      11    113.82    -0.95487 ( 96.41%)    -0.81285 (  3.59%)    -0.94978
      12    137.87    -0.84474 ( 98.30%)    -0.75608 (  1.70%)    -0.84323
      13    162.80    -0.75045 ( 99.12%)    -0.70684 (  0.88%)    -0.75007
      14    173.53    -0.71463 ( 99.32%)    -0.68792 (  0.68%)    -0.71445
      15    175.76    -0.70751 ( 99.35%)    -0.68415 (  0.65%)    -0.70736
      16    203.34    -0.62690 ( 99.64%)    -0.64096 (  0.36%)    -0.62695
      17    204.89    -0.62277 ( 99.65%)    -0.63872 (  0.35%)    -0.62282
      18    211.15    -0.60636 ( 99.69%)    -0.62980 (  0.31%)    -0.60643
      19    221.38    -0.58072 ( 99.74%)    -0.61577 (  0.26%)    -0.58081
      20    228.60    -0.56347 ( 99.77%)    -0.60627 (  0.23%)    -0.56357
      21    239.98    -0.53756 ( 99.81%)    -0.59188 (  0.19%)    -0.53767
      22    245.21    -0.52617 ( 99.83%)    -0.58550 (  0.17%)    -0.52627
      23    249.65    -0.51670 ( 99.84%)    -0.58018 (  0.16%)    -0.51681
      24    269.07    -0.47769 ( 99.88%)    -0.55799 (  0.12%)    -0.47779
      25    273.31    -0.46964 ( 99.89%)    -0.55336 (  0.11%)    -0.46974
      26    286.67    -0.44529 ( 99.91%)    -0.53922 (  0.09%)    -0.44538
      27    288.87    -0.44143 ( 99.91%)    -0.53695 (  0.09%)    -0.44152
   ------------------------------------------------------------------------

   temp. (K)  partition function   enthalpy   heat capacity  entropy
                                   cal/mol     cal/K/mol   cal/K/mol   J/K/mol
 298.15  VIB  0.114E+13            16877.756    108.165    103.268
         ROT  0.208E+08              888.727      2.981     36.468
         INT  0.237E+20            17766.483    111.146    139.736
         TR   0.233E+27             1481.212      4.968     43.749
         TOT                       19247.6956   116.1137   183.4847   767.6999

       T/K    H(0)-H(T)+PV         H(T)/Eh          T*S/Eh         G(T)/Eh
   ------------------------------------------------------------------------
    298.15    0.306732E-01    0.706710E+00    0.871795E-01    0.619531E+00
   ------------------------------------------------------------------------

         :::::::::::::::::::::::::::::::::::::::::::::::::::::
         ::                  THERMODYNAMIC                  ::
         :::::::::::::::::::::::::::::::::::::::::::::::::::::
         :: total free energy         -84.811398831385 Eh   ::
         ::.................................................::
         :: total energy              -85.430929808127 Eh   ::
         :: zero point energy           0.676037311551 Eh   ::
         :: G(RRHO) w/o ZPVE           -0.056506334809 Eh   ::
Note: The following floating-point exceptions are signalling: IEEE_UNDERFLOW_FLAG
normal termination of xtb
         :: G(RRHO) contrib.            0.619530976742 Eh   ::
         :::::::::::::::::::::::::::::::::::::::::::::::::::::

           -------------------------------------------------
          | TOTAL ENERGY              -85.430929808127 Eh   |
          | TOTAL ENTHALPY            -84.724219341217 Eh   |
          | TOTAL FREE ENERGY         -84.811398831385 Eh   |
          | GRADIENT NORM               0.000517395322 Eh/α |
          | HOMO-LUMO GAP               5.019314885088 eV   |
           -------------------------------------------------

------------------------------------------------------------------------
 * finished run on 2026/08/28 at 19:21:11.186     
------------------------------------------------------------------------
 total:
 * wall-time:     0 d,  0 h,  0 min, 58.118 sec
 *  cpu-time:     0 d,  0 h,  0 min, 58.088 sec
 * ratio c/w:     0.999 speedup
 SCF:
 * wall-time:     0 d,  0 h,  0 min,  0.186 sec
 *  cpu-time:     0 d,  0 h,  0 min,  0.179 sec
 * ratio c/w:     0.960 speedup
 analytical hessian:
 * wall-time:     0 d,  0 h,  0 min, 57.893 sec
 *  cpu-time:     0 d,  0 h,  0 min, 57.875 sec
 * ratio c/w:     1.000 speedup

