      -----------------------------------------------------------      
     |                   =====================                   |     
     |                           x T B                           |     
     |                   =====================                   |     
     |                         S. Grimme                         |     
     |          Mulliken Center for Theoretical Chemistry        |     
     |                    University of Bonn                     |     
      -----------------------------------------------------------      

   * xtb version 6.7.1 (unknown) compiled by 'root@buildkitsandbox' on 2026-08-28

   xtb is free software: you can redistribute it and/or modify it under
   the terms of the GNU Lesser General Public License as published by
   the Free Software Foundation, either version 3 of the License, or
   (at your option) any later version.
   
   xtb is distributed in the hope that it will be useful,
   but WITHOUT ANY WARRANTY; without even the implied warranty of
   MERCHANTABILITY or FITNESS FOR A PARTICULAR PURPOSE.  See the
   GNU Lesser General Public License for more details.
   
   Cite this work as:
   * C. Bannwarth, E. Caldeweyher, S. Ehlert, A. Hansen, P. Pracht,
     J. Seibert, S. Spicher, S. Grimme, WIREs Comput. Mol. Sci., 2020, 11,
     e01493. DOI: 10.1002/wcms.1493
   
   for GFN2-xTB:
   * C. Bannwarth, S. Ehlert and S. Grimme., J. Chem. Theory Comput., 2019,
     15, 1652-1671. DOI: 10.1021/acs.jctc.8b01176
   for GFN1-xTB:
   * S. Grimme, C. Bannwarth, P. Shushkov, J. Chem. Theory Comput., 2017,
     13, 1989-2009. DOI: 10.1021/acs.jctc.7b00118
   for GFN0-xTB:
   * P. Pracht, E. Caldeweyher, S. Ehlert, S. Grimme, ChemRxiv, 2019, preprint.
     DOI: 10.26434/chemrxiv.8326202.v1
   for GFN-FF:
   * S. Spicher and S. Grimme, Angew. Chem. Int. Ed., 2020, 59, 15665-15673.
     DOI: 10.1002/anie.202004239
   
   for ALPB and GBSA implicit solvation:
   * S. Ehlert, M. Stahn, S. Spicher, S. Grimme, J. Chem. Theory Comput.,
     2021, 17, 4250-4261. DOI: 10.1021/acs.jctc.1c00471
   
   for ddCOSMO and CPCM-X implicit solvation:
   * M. Stahn, S. Ehlert, S. Grimme, J. Phys. Chem. A,
     2023, XX, XXXX-XXXX. DOI: 10.1021/acs.jpca.3c04382
   
   for DFT-D4:
   * E. Caldeweyher, C. Bannwarth and S. Grimme, J. Chem. Phys., 2017,
     147, 034112. DOI: 10.1063/1.4993215
   * E. Caldeweyher, S. Ehlert, A. Hansen, H. Neugebauer, S. Spicher,
     C. Bannwarth and S. Grimme, J. Chem. Phys., 2019, 150, 154122.
     DOI: 10.1063/1.5090222
   * E. Caldeweyher, J.-M. Mewes, S. Ehlert and S. Grimme, Phys. Chem. Chem. Phys.
     2020, 22, 8499-8512. DOI: 10.1039/D0CP00502A
   
   for sTDA-xTB:
   * S. Grimme and C. Bannwarth, J. Chem. Phys., 2016, 145, 054103.
     DOI: 10.1063/1.4959605
   
   in the mass-spec context:
   * V. Asgeirsson, C. Bauer and S. Grimme, Chem. Sci., 2017, 8, 4879.
     DOI: 10.1039/c7sc00601b
   * J. Koopman and S. Grimme, ACS Omega 2019, 4, 12, 15120-15133.
     DOI: 10.1021/acsomega.9b02011
   
   for metadynamics refer to:
   * S. Grimme, J. Chem. Theory Comput., 2019, 155, 2847-2862
     DOI: 10.1021/acs.jctc.9b00143
   
   for SPH calculations refer to:
   * S. Spicher and S. Grimme, J. Chem. Theory Comput., 2021, 17, 1701-1714
     DOI: 10.1021/acs.jctc.0c01306
   
   for ONIOM refer to:
   * C. Plett, A. Katbashev, S. Ehlert, S. Grimme, M. Bursch,
     Phys. Chem. Chem. Phys., 2023, 25, 17860-17868. DOI: 10.1039/D3CP02178E
   
   for DIPRO refer to:
   * J. Kohn, N. Gildemeister, S. Grimme, D. Fazzi, A. Hansen,
     J. Chem. Phys. 159, 144106 (2023). DOI: 10.1063/5.0167484
   
   for PTB refer to:
   * S. Grimme, M. Mueller, A. Hansen, J. Chem. Phys., 2023, 158, 124111.
     DOI: 10.1063/5.0137838
   
   with help from (in alphabetical order)
   P. Atkinson, C. Bannwarth, F. Bohle, G. Brandenburg, E. Caldeweyher,
   M. Checinski, S. Dohm, S. Ehlert, S. Ehrlich, M. Friede, T. Froitzheim,
   I. Gerasimov, C. Hölzer, A. Katbashev, J. Kohn, J. Koopman, C. Lavigne,
   S. Lehtola, F. März, M. Müller, F. Musil, H. Neugebauer, J. Pisarek,
   C. Plett, P. Pracht, F. Pultar, J. Seibert, P. Shushkov, S. Spicher,
   M. Stahn, M. Steiner, T. Strunk, J. Stückrath, T. Rose, and J. Unsleber
   
 * started run on 2026/08/28 at 19:09:45.230     
   ID    Z sym.   atoms
    1    6 C      1-11, 13-19
    2    8 O      12, 20
    3    1 H      21-44

           -------------------------------------------------
          |                Calculation Setup                |
           -------------------------------------------------

          program call               : xtb in.xyz --gfn 2 --grad --norestart
          hostname                   : 756d39058c4f
          coordinate file            : in.xyz
          random seed                :            1500943292


           -------------------------------------------------
          |                 G F N 2 - x T B                 |
           -------------------------------------------------

        Reference                      10.1021/acs.jctc.8b01176
      * Hamiltonian:
        H0-scaling (s, p, d)           1.850000    2.230000    2.230000
        zeta-weighting                 0.500000
      * Dispersion:
        s8                             2.700000
        a1                             0.520000
        a2                             5.000000
        s9                             5.000000
      * Repulsion:
        kExp                           1.500000    1.000000
        rExp                           1.000000
      * Coulomb:
        alpha                          2.000000
        third order                    shell-resolved
        anisotropic                    true
        a3                             3.000000
        a5                             4.000000
        cn-shift                       1.200000
        cn-exp                         4.000000
        max-rad                        5.000000


          ...................................................
          :                      SETUP                      :
          :.................................................:
          :  # basis functions                 104          :
          :  # atomic orbitals                 104          :
          :  # shells                           64          :
          :  # electrons                       108          :
          :  max. iterations                   250          :
          :  Hamiltonian                  GFN2-xTB          :
          :  restarted?                      false          :
          :  GBSA solvation                  false          :
          :  PC potential                    false          :
          :  electronic temp.          300.0000000     K    :
          :  accuracy                    1.0000000          :
          :  -> integral cutoff          0.2500000E+02      :
          :  -> integral neglect         0.1000000E-07      :
          :  -> SCF convergence          0.1000000E-05 Eh   :
          :  -> wf. convergence          0.1000000E-03 e    :
          :  Broyden damping             0.4000000          :
          :  net charge                          0          :
          :  unpaired electrons                  0          :
          ...................................................

 iter      E             dE          RMSdq      gap      omega  full diag
   1    -59.6922521 -0.596923E+02  0.337E+00    3.98       0.0  T
   2    -59.7518937 -0.596416E-01  0.200E+00    4.07       1.0  T
   3    -59.7492706  0.262320E-02  0.812E-01    3.99       1.0  T
   4    -59.7553327 -0.606214E-02  0.301E-01    4.04       1.0  T
   5    -59.7571286 -0.179593E-02  0.787E-02    4.07       1.0  T
   6    -59.7571605 -0.318812E-04  0.410E-02    4.04       1.0  T
   7    -59.7571782 -0.177027E-04  0.128E-02    4.05       1.2  T
   8    -59.7571796 -0.144205E-05  0.474E-03    4.05       3.2  T
   9    -59.7571799 -0.238843E-06  0.199E-03    4.05       7.6  T
  10    -59.7571800 -0.643716E-07  0.936E-04    4.05      16.1  T
  11    -59.7571800 -0.165211E-07  0.326E-04    4.05      46.2  T

   *** convergence criteria satisfied after 11 iterations ***

         #    Occupation            Energy/Eh            Energy/eV
      -------------------------------------------------------------
         1        2.0000           -0.7042246             -19.1629
       ...           ...                  ...                  ...
        48        2.0000           -0.4218008             -11.4778
        49        2.0000           -0.4157754             -11.3138
        50        2.0000           -0.4109369             -11.1822
        51        2.0000           -0.4001393             -10.8883
        52        2.0000           -0.3913922             -10.6503
        53        2.0000           -0.3896004             -10.6016
        54        2.0000           -0.3697787             -10.0622 (HOMO)
        55                         -0.2209423              -6.0121 (LUMO)
        56                         -0.2068036              -5.6274
        57                         -0.0911527              -2.4804
        58                          0.0079745               0.2170
        59                          0.0277124               0.7541
       ...                                ...                  ...
       104                          0.6286195              17.1056
      -------------------------------------------------------------
                  HL-Gap            0.1488364 Eh            4.0500 eV
             Fermi-level           -0.2953605 Eh           -8.0372 eV

 SCC (total)                   0 d,  0 h,  0 min,  0.199 sec
 SCC setup                      ...        0 min,  0.000 sec (  0.067%)
 Dispersion                     ...        0 min,  0.001 sec (  0.648%)
 classical contributions        ...        0 min,  0.000 sec (  0.052%)
 integral evaluation            ...        0 min,  0.018 sec (  8.944%)
 iterations                     ...        0 min,  0.141 sec ( 70.882%)
 molecular gradient             ...        0 min,  0.037 sec ( 18.778%)
 printout                       ...        0 min,  0.001 sec (  0.613%)

         :::::::::::::::::::::::::::::::::::::::::::::::::::::
         ::                     SUMMARY                     ::
         :::::::::::::::::::::::::::::::::::::::::::::::::::::
         :: total energy             -58.970260198294 Eh    ::
         :: gradient norm              0.046013712088 Eh/a0 ::
         :: HOMO-LUMO gap              4.050044489270 eV    ::
         ::.................................................::
         :: SCC energy               -59.756662416344 Eh    ::
         :: -> isotropic ES            0.050312071729 Eh    ::
         :: -> anisotropic ES          0.011506537768 Eh    ::
         :: -> anisotropic XC          0.022155368055 Eh    ::
         :: -> dispersion             -0.047285612670 Eh    ::
         :: repulsion energy           0.786402218051 Eh    ::
         :: add. restraining           0.000000000000 Eh    ::
         :: total charge              -0.000000000000 e     ::
         :::::::::::::::::::::::::::::::::::::::::::::::::::::

           -------------------------------------------------
          |                Property Printout                |
           -------------------------------------------------

    * Orbital Energies and Occupations

         #    Occupation            Energy/Eh            Energy/eV
      -------------------------------------------------------------
         1        2.0000           -0.7042246             -19.1629
       ...           ...                  ...                  ...
        42        2.0000           -0.4440016             -12.0819
        43        2.0000           -0.4426234             -12.0444
        44        2.0000           -0.4358492             -11.8601
        45        2.0000           -0.4335878             -11.7985
        46        2.0000           -0.4299168             -11.6986
        47        2.0000           -0.4234377             -11.5223
        48        2.0000           -0.4218008             -11.4778
        49        2.0000           -0.4157754             -11.3138
        50        2.0000           -0.4109369             -11.1822
        51        2.0000           -0.4001393             -10.8883
        52        2.0000           -0.3913922             -10.6503
        53        2.0000           -0.3896004             -10.6016
        54        2.0000           -0.3697787             -10.0622 (HOMO)
        55                         -0.2209423              -6.0121 (LUMO)
        56                         -0.2068036              -5.6274
        57                         -0.0911527              -2.4804
        58                          0.0079745               0.2170
        59                          0.0277124               0.7541
        60                          0.0378617               1.0303
        61                          0.0478699               1.3026
        62                          0.0586159               1.5950
        63                          0.0627399               1.7072
        64                          0.0691314               1.8812
        65                          0.0784570               2.1349
       ...                                ...                  ...
       104                          0.6286195              17.1056
      -------------------------------------------------------------
                  HL-Gap            0.1488364 Eh            4.0500 eV
             Fermi-level           -0.2953605 Eh           -8.0372 eV

     #   Z          covCN         q      C6AA      α(0)
     1   6          3.750    -0.101    22.496     6.764
     2   6          3.923     0.003    20.472     6.430
     3   6          3.804    -0.059    21.640     6.623
     4   6          3.797    -0.057    21.604     6.618
     5   6          3.852    -0.024    20.972     6.513
     6   6          3.853    -0.022    20.921     6.505
     7   6          3.804    -0.057    21.597     6.616
     8   6          3.808    -0.058    21.612     6.618
     9   6          2.964     0.004    27.936     8.670
    10   6          2.914    -0.084    30.104     8.997
    11   6          2.841     0.141    24.920     8.181
    12   8          1.659    -0.398    20.803     6.157
    13   6          2.911    -0.060    29.487     8.904
    14   6          2.915    -0.043    29.073     8.842
    15   6          2.957    -0.008    28.228     8.715
    16   6          3.901    -0.029    21.027     6.518
    17   6          3.818    -0.061    21.653     6.622
    18   6          3.819    -0.072    21.865     6.655
    19   6          3.761     0.108    18.851     6.189
    20   8          1.654    -0.446    21.759     6.297
    21   1          0.924     0.039     2.462     2.454
    22   1          0.924     0.038     2.478     2.462
    23   1          0.924     0.029     2.598     2.521
    24   1          0.923     0.028     2.617     2.530
    25   1          0.924     0.038     2.473     2.459
    26   1          0.924     0.032     2.558     2.501
    27   1          0.924     0.032     2.553     2.499
    28   1          0.923     0.038     2.480     2.463
    29   1          0.924     0.036     2.502     2.474
    30   1          0.924     0.030     2.593     2.518
    31   1          0.924     0.029     2.605     2.524
    32   1          0.924     0.039     2.460     2.453
    33   1          0.924     0.037     2.489     2.467
    34   1          0.925     0.022     2.700     2.570
    35   1          0.804     0.296     0.733     1.345
    36   1          0.925     0.046     2.364     2.404
    37   1          0.925     0.036     2.499     2.472
    38   1          0.923     0.028     2.617     2.530
    39   1          0.924     0.028     2.609     2.526
    40   1          0.924     0.031     2.572     2.508
    41   1          0.924     0.033     2.549     2.497
    42   1          0.924     0.030     2.580     2.512
    43   1          0.924     0.037     2.488     2.467
    44   1          0.804     0.290     0.752     1.362

 Mol. C6AA /au·bohr⁶  :      17662.219798
 Mol. C8AA /au·bohr⁸  :     405603.833501
 Mol. α(0) /au        :        200.951639


Wiberg/Mayer (AO) data.
largest (>0.10) Wiberg bond orders for each atom

 ---------------------------------------------------------------------------
     #   Z sym  total        # sym  WBO       # sym  WBO       # sym  WBO
 ---------------------------------------------------------------------------
     1   6      3.996 --     2      0.997    23      0.984    22      0.983
                            21      0.979
     2   6      3.989 --     1      0.997     3      0.991    16      0.968
                            19      0.959
     3   6      3.996 --     4      1.003     2      0.991    24      0.976
                            25      0.975
     4   6      3.995 --     3      1.003     5      0.991    27      0.977
                            26      0.973
     5   6      3.992 --    15      0.996     4      0.991     6      0.977
                            28      0.950
     6   6      3.994 --     7      0.997    16      0.990     5      0.977
                            29      0.963
     7   6      3.996 --     8      1.006     6      0.997    31      0.977
                            30      0.975
     8   6      3.997 --     9      1.012     7      1.006    33      0.968
                            32      0.961
     9   6      3.986 --    10      1.410    15      1.387     8      1.012
                            13      0.106
    10   6      3.982 --     9      1.410    11      1.383    34      0.965
                            14      0.106
    11   6      3.937 --    10      1.383    13      1.367    12      1.062
    12   8      2.108 --    11      1.062    35      0.891
    13   6      3.987 --    14      1.451    11      1.367    36      0.968
                             9      0.106
    14   6      3.989 --    13      1.451    15      1.406    37      0.966
                            10      0.106
    15   6      3.984 --    14      1.406     9      1.387     5      0.996
    16   6      3.992 --    17      0.995     6      0.990     2      0.968
                            38      0.964
    17   6      3.997 --    18      1.000    16      0.995    39      0.981
                            40      0.979
    18   6      3.996 --    17      1.000    41      0.983    19      0.981
                            42      0.977
    19   6      3.954 --    20      0.997    18      0.981    43      0.963
                             2      0.959
    20   8      1.968 --    19      0.997    44      0.893
    21   1      0.998 --     1      0.979
    22   1      0.998 --     1      0.983
    23   1      0.999 --     1      0.984
    24   1      0.999 --     3      0.976
    25   1      0.998 --     3      0.975
    26   1      0.998 --     4      0.973
    27   1      0.999 --     4      0.977
    28   1      0.998 --     5      0.950
    29   1      0.999 --     6      0.963
    30   1      0.998 --     7      0.975
    31   1      0.999 --     7      0.977
    32   1      0.998 --     8      0.961
    33   1      0.998 --     8      0.968
    34   1      0.999 --    10      0.965
    35   1      0.912 --    12      0.891
    36   1      0.997 --    13      0.968
    37   1      0.998 --    14      0.966
    38   1      0.999 --    16      0.964
    39   1      0.999 --    17      0.981
    40   1      0.999 --    17      0.979
    41   1      0.999 --    18      0.983
    42   1      0.999 --    18      0.977
    43   1      0.999 --    19      0.963
    44   1      0.916 --    20      0.893
 ---------------------------------------------------------------------------

Topologies differ in total number of bonds
Writing topology from bond orders to xtbtopo.mol

molecular dipole:
                 x           y           z       tot (Debye)
 q only:        0.024      -0.804      -0.384
   full:        0.079      -1.204      -0.540       3.359
molecular quadrupole (traceless):
                xx          xy          yy          xz          yz          zz
 q only:       -8.985      -2.364       4.254       3.498       0.355       4.731
  q+dip:      -12.579      -2.903       5.860       4.093       1.406       6.719
   full:      -12.070      -3.449       4.833       4.653       0.794       7.237


           -------------------------------------------------
          | TOTAL ENERGY              -58.970260198294 Eh   |
Note: The following floating-point exceptions are signalling: IEEE_UNDERFLOW_FLAG
normal termination of xtb
          | GRADIENT NORM               0.046013712088 Eh/α |
          | HOMO-LUMO GAP               4.050044489270 eV   |
           -------------------------------------------------

------------------------------------------------------------------------
 * finished run on 2026/08/28 at 19:09:45.459     
------------------------------------------------------------------------
 total:
 * wall-time:     0 d,  0 h,  0 min,  0.229 sec
 *  cpu-time:     0 d,  0 h,  0 min,  0.145 sec
 * ratio c/w:     0.632 speedup
 SCF:
 * wall-time:     0 d,  0 h,  0 min,  0.200 sec
 *  cpu-time:     0 d,  0 h,  0 min,  0.131 sec
 * ratio c/w:     0.657 speedup

