      -----------------------------------------------------------      
     |                   =====================                   |     
     |                           x T B                           |     
     |                   =====================                   |     
     |                         S. Grimme                         |     
     |          Mulliken Center for Theoretical Chemistry        |     
     |                    University of Bonn                     |     
      -----------------------------------------------------------      

   * xtb version 6.7.1 (unknown) compiled by 'root@buildkitsandbox' on 2026-08-28

   xtb is free software: you can redistribute it and/or modify it under
   the terms of the GNU Lesser General Public License as published by
   the Free Software Foundation, either version 3 of the License, or
   (at your option) any later version.
   
   xtb is distributed in the hope that it will be useful,
   but WITHOUT ANY WARRANTY; without even the implied warranty of
   MERCHANTABILITY or FITNESS FOR A PARTICULAR PURPOSE.  See the
   GNU Lesser General Public License for more details.
   
   Cite this work as:
   * C. Bannwarth, E. Caldeweyher, S. Ehlert, A. Hansen, P. Pracht,
     J. Seibert, S. Spicher, S. Grimme, WIREs Comput. Mol. Sci., 2020, 11,
     e01493. DOI: 10.1002/wcms.1493
   
   for GFN2-xTB:
   * C. Bannwarth, S. Ehlert and S. Grimme., J. Chem. Theory Comput., 2019,
     15, 1652-1671. DOI: 10.1021/acs.jctc.8b01176
   for GFN1-xTB:
   * S. Grimme, C. Bannwarth, P. Shushkov, J. Chem. Theory Comput., 2017,
     13, 1989-2009. DOI: 10.1021/acs.jctc.7b00118
   for GFN0-xTB:
   * P. Pracht, E. Caldeweyher, S. Ehlert, S. Grimme, ChemRxiv, 2019, preprint.
     DOI: 10.26434/chemrxiv.8326202.v1
   for GFN-FF:
   * S. Spicher and S. Grimme, Angew. Chem. Int. Ed., 2020, 59, 15665-15673.
     DOI: 10.1002/anie.202004239
   
   for ALPB and GBSA implicit solvation:
   * S. Ehlert, M. Stahn, S. Spicher, S. Grimme, J. Chem. Theory Comput.,
     2021, 17, 4250-4261. DOI: 10.1021/acs.jctc.1c00471
   
   for ddCOSMO and CPCM-X implicit solvation:
   * M. Stahn, S. Ehlert, S. Grimme, J. Phys. Chem. A,
     2023, XX, XXXX-XXXX. DOI: 10.1021/acs.jpca.3c04382
   
   for DFT-D4:
   * E. Caldeweyher, C. Bannwarth and S. Grimme, J. Chem. Phys., 2017,
     147, 034112. DOI: 10.1063/1.4993215
   * E. Caldeweyher, S. Ehlert, A. Hansen, H. Neugebauer, S. Spicher,
     C. Bannwarth and S. Grimme, J. Chem. Phys., 2019, 150, 154122.
     DOI: 10.1063/1.5090222
   * E. Caldeweyher, J.-M. Mewes, S. Ehlert and S. Grimme, Phys. Chem. Chem. Phys.
     2020, 22, 8499-8512. DOI: 10.1039/D0CP00502A
   
   for sTDA-xTB:
   * S. Grimme and C. Bannwarth, J. Chem. Phys., 2016, 145, 054103.
     DOI: 10.1063/1.4959605
   
   in the mass-spec context:
   * V. Asgeirsson, C. Bauer and S. Grimme, Chem. Sci., 2017, 8, 4879.
     DOI: 10.1039/c7sc00601b
   * J. Koopman and S. Grimme, ACS Omega 2019, 4, 12, 15120-15133.
     DOI: 10.1021/acsomega.9b02011
   
   for metadynamics refer to:
   * S. Grimme, J. Chem. Theory Comput., 2019, 155, 2847-2862
     DOI: 10.1021/acs.jctc.9b00143
   
   for SPH calculations refer to:
   * S. Spicher and S. Grimme, J. Chem. Theory Comput., 2021, 17, 1701-1714
     DOI: 10.1021/acs.jctc.0c01306
   
   for ONIOM refer to:
   * C. Plett, A. Katbashev, S. Ehlert, S. Grimme, M. Bursch,
     Phys. Chem. Chem. Phys., 2023, 25, 17860-17868. DOI: 10.1039/D3CP02178E
   
   for DIPRO refer to:
   * J. Kohn, N. Gildemeister, S. Grimme, D. Fazzi, A. Hansen,
     J. Chem. Phys. 159, 144106 (2023). DOI: 10.1063/5.0167484
   
   for PTB refer to:
   * S. Grimme, M. Mueller, A. Hansen, J. Chem. Phys., 2023, 158, 124111.
     DOI: 10.1063/5.0137838
   
   with help from (in alphabetical order)
   P. Atkinson, C. Bannwarth, F. Bohle, G. Brandenburg, E. Caldeweyher,
   M. Checinski, S. Dohm, S. Ehlert, S. Ehrlich, M. Friede, T. Froitzheim,
   I. Gerasimov, C. Hölzer, A. Katbashev, J. Kohn, J. Koopman, C. Lavigne,
   S. Lehtola, F. März, M. Müller, F. Musil, H. Neugebauer, J. Pisarek,
   C. Plett, P. Pracht, F. Pultar, J. Seibert, P. Shushkov, S. Spicher,
   M. Stahn, M. Steiner, T. Strunk, J. Stückrath, T. Rose, and J. Unsleber
   
 * started run on 2026/08/28 at 19:13:11.510     
   ID    Z sym.   atoms
    1    6 C      1-11, 13-19
    2    8 O      12, 20
    3    1 H      21-44

           -------------------------------------------------
          |                Calculation Setup                |
           -------------------------------------------------

          program call               : xtb opt.xyz --gfn 2 --hess --norestart
          hostname                   : 756d39058c4f
          coordinate file            : opt.xyz
          random seed                :             528834142


           -------------------------------------------------
          |                 G F N 2 - x T B                 |
           -------------------------------------------------

        Reference                      10.1021/acs.jctc.8b01176
      * Hamiltonian:
        H0-scaling (s, p, d)           1.850000    2.230000    2.230000
        zeta-weighting                 0.500000
      * Dispersion:
        s8                             2.700000
        a1                             0.520000
        a2                             5.000000
        s9                             5.000000
      * Repulsion:
        kExp                           1.500000    1.000000
        rExp                           1.000000
      * Coulomb:
        alpha                          2.000000
        third order                    shell-resolved
        anisotropic                    true
        a3                             3.000000
        a5                             4.000000
        cn-shift                       1.200000
        cn-exp                         4.000000
        max-rad                        5.000000


          ...................................................
          :                      SETUP                      :
          :.................................................:
          :  # basis functions                 104          :
          :  # atomic orbitals                 104          :
          :  # shells                           64          :
          :  # electrons                       108          :
          :  max. iterations                   250          :
          :  Hamiltonian                  GFN2-xTB          :
          :  restarted?                      false          :
          :  GBSA solvation                  false          :
          :  PC potential                    false          :
          :  electronic temp.          300.0000000     K    :
          :  accuracy                    1.0000000          :
          :  -> integral cutoff          0.2500000E+02      :
          :  -> integral neglect         0.1000000E-07      :
          :  -> SCF convergence          0.1000000E-05 Eh   :
          :  -> wf. convergence          0.1000000E-03 e    :
          :  Broyden damping             0.4000000          :
          :  net charge                          0          :
          :  unpaired electrons                  0          :
          ...................................................

 iter      E             dE          RMSdq      gap      omega  full diag
   1    -59.7387011 -0.597387E+02  0.331E+00    4.12       0.0  T
   2    -59.7968994 -0.581983E-01  0.196E+00    4.21       1.0  T
   3    -59.7949687  0.193067E-02  0.785E-01    4.13       1.0  T
   4    -59.8003917 -0.542299E-02  0.281E-01    4.20       1.0  T
   5    -59.8018858 -0.149408E-02  0.743E-02    4.21       1.0  T
   6    -59.8019066 -0.208542E-04  0.374E-02    4.19       1.0  T
   7    -59.8019207 -0.140639E-04  0.120E-02    4.20       1.3  T
   8    -59.8019220 -0.129626E-05  0.428E-03    4.20       3.5  T
   9    -59.8019222 -0.184466E-06  0.172E-03    4.20       8.8  T
  10    -59.8019222 -0.313224E-07  0.755E-04    4.20      20.0  T
  11    -59.8019222 -0.809995E-08  0.291E-04    4.20      51.8  T

   *** convergence criteria satisfied after 11 iterations ***

         #    Occupation            Energy/Eh            Energy/eV
      -------------------------------------------------------------
         1        2.0000           -0.7050014             -19.1841
       ...           ...                  ...                  ...
        48        2.0000           -0.4216272             -11.4731
        49        2.0000           -0.4173331             -11.3562
        50        2.0000           -0.4100257             -11.1574
        51        2.0000           -0.3992700             -10.8647
        52        2.0000           -0.3928551             -10.6901
        53        2.0000           -0.3911097             -10.6426
        54        2.0000           -0.3712045             -10.1010 (HOMO)
        55                         -0.2169727              -5.9041 (LUMO)
        56                         -0.2060574              -5.6071
        57                         -0.0857014              -2.3321
        58                          0.0149343               0.4064
        59                          0.0352072               0.9580
       ...                                ...                  ...
       104                          0.6620376              18.0150
      -------------------------------------------------------------
                  HL-Gap            0.1542318 Eh            4.1969 eV
             Fermi-level           -0.2940886 Eh           -8.0026 eV

 SCC (total)                   0 d,  0 h,  0 min,  0.140 sec
 SCC setup                      ...        0 min,  0.000 sec (  0.115%)
 Dispersion                     ...        0 min,  0.001 sec (  0.446%)
 classical contributions        ...        0 min,  0.000 sec (  0.035%)
 integral evaluation            ...        0 min,  0.005 sec (  3.753%)
 iterations                     ...        0 min,  0.089 sec ( 63.439%)
 molecular gradient             ...        0 min,  0.037 sec ( 26.666%)
 printout                       ...        0 min,  0.008 sec (  5.530%)

         :::::::::::::::::::::::::::::::::::::::::::::::::::::
         ::                     SUMMARY                     ::
         :::::::::::::::::::::::::::::::::::::::::::::::::::::
         :: total energy             -58.975774921488 Eh    ::
         :: gradient norm              0.000939818261 Eh/a0 ::
         :: HOMO-LUMO gap              4.196860501009 eV    ::
         ::.................................................::
         :: SCC energy               -59.801402137849 Eh    ::
         :: -> isotropic ES            0.049976572637 Eh    ::
         :: -> anisotropic ES          0.010673389643 Eh    ::
         :: -> anisotropic XC          0.021069934386 Eh    ::
         :: -> dispersion             -0.047782887631 Eh    ::
         :: repulsion energy           0.825627216361 Eh    ::
         :: add. restraining           0.000000000000 Eh    ::
         :: total charge              -0.000000000000 e     ::
         :::::::::::::::::::::::::::::::::::::::::::::::::::::

           ------------------------------------------------- 
          |                Numerical Hessian                |
           ------------------------------------------------- 
step length          :   0.00500
SCC accuracy         :   0.30000
Hessian scale factor :   1.00000
frozen atoms in %    :   0.00000    0
RMS gradient         :   0.00094
estimated CPU  time      0.29 min
estimated wall time      0.29 min

writing file <hessian>, containing the non-mass-weighted Hessian matrix in atomic units (Eₕ/Bohr²).

 projected vibrational frequencies (cm⁻¹)
eigval :       -0.00    -0.00    -0.00    -0.00     0.00     0.00
eigval :       29.31    56.03    94.36   115.25   126.43   152.27
eigval :      200.62   207.05   230.87   239.54   242.71   275.53
eigval :      294.96   310.95   345.20   358.94   371.27   380.49
eigval :      398.13   411.14   435.54   439.45   449.10   476.14
eigval :      495.62   505.64   535.16   556.21   559.30   603.17
eigval :      609.94   644.02   673.51   733.57   760.92   800.77
eigval :      831.11   860.61   864.32   868.96   878.01   888.54
eigval :      908.76   925.72   952.58   964.25   979.57   999.55
eigval :     1024.90  1033.38  1046.11  1059.05  1064.25  1078.69
eigval :     1096.12  1102.59  1114.75  1121.84  1132.92  1137.17
eigval :     1148.78  1151.17  1162.22  1176.07  1183.50  1189.21
eigval :     1198.03  1210.19  1215.04  1230.61  1232.80  1245.08
eigval :     1263.09  1269.53  1275.49  1284.24  1288.16  1297.11
eigval :     1302.82  1304.57  1327.83  1331.45  1338.47  1344.62
eigval :     1347.40  1350.74  1355.69  1365.60  1386.71  1409.93
eigval :     1438.03  1473.01  1483.93  1492.20  1495.83  1497.99
eigval :     1500.09  1507.96  1517.94  1521.59  1586.56  1612.78
eigval :     2868.42  2904.35  2924.93  2942.32  2948.25  2961.44
eigval :     2965.02  2971.38  2974.64  2980.55  2984.49  2988.54
eigval :     2990.64  2997.62  3004.87  3014.24  3016.10  3038.17
eigval :     3041.04  3064.37  3101.98  3113.78  3522.64  3544.27
           -------------------------------------------------
          |                Property Printout                |
           -------------------------------------------------

    * Orbital Energies and Occupations

         #    Occupation            Energy/Eh            Energy/eV
      -------------------------------------------------------------
         1        2.0000           -0.7049972             -19.1839
       ...           ...                  ...                  ...
        42        2.0000           -0.4451254             -12.1125
        43        2.0000           -0.4425359             -12.0420
        44        2.0000           -0.4371815             -11.8963
        45        2.0000           -0.4344012             -11.8207
        46        2.0000           -0.4291028             -11.6765
        47        2.0000           -0.4227272             -11.5030
        48        2.0000           -0.4216274             -11.4731
        49        2.0000           -0.4173335             -11.3562
        50        2.0000           -0.4100257             -11.1574
        51        2.0000           -0.3992699             -10.8647
        52        2.0000           -0.3928544             -10.6901
        53        2.0000           -0.3911093             -10.6426
        54        2.0000           -0.3712035             -10.1010 (HOMO)
        55                         -0.2169708              -5.9041 (LUMO)
        56                         -0.2060570              -5.6071
        57                         -0.0857002              -2.3320
        58                          0.0149346               0.4064
        59                          0.0352075               0.9580
        60                          0.0428071               1.1648
        61                          0.0581144               1.5814
        62                          0.0669537               1.8219
        63                          0.0717331               1.9520
        64                          0.0808069               2.1989
        65                          0.0881125               2.3977
       ...                                ...                  ...
       104                          0.6620388              18.0150
      -------------------------------------------------------------
                  HL-Gap            0.1542327 Eh            4.1969 eV
             Fermi-level           -0.2940871 Eh           -8.0025 eV

     #   Z          covCN         q      C6AA      α(0)
     1   6          3.757    -0.105    22.568     6.773
     2   6          3.926     0.000    20.511     6.436
     3   6          3.809    -0.060    21.656     6.624
     4   6          3.804    -0.059    21.629     6.621
     5   6          3.864    -0.024    20.952     6.509
     6   6          3.862    -0.021    20.916     6.504
     7   6          3.809    -0.059    21.622     6.619
     8   6          3.813    -0.059    21.627     6.619
     9   6          2.974     0.005    27.899     8.664
    10   6          2.926    -0.083    30.089     8.996
    11   6          2.845     0.140    24.939     8.184
    12   8          1.659    -0.397    20.783     6.154
    13   6          2.918    -0.060    29.497     8.906
    14   6          2.926    -0.042    29.055     8.840
    15   6          2.969    -0.009    28.233     8.716
    16   6          3.903    -0.029    21.042     6.520
    17   6          3.818    -0.062    21.681     6.627
    18   6          3.819    -0.075    21.911     6.662
    19   6          3.757     0.106    18.881     6.195
    20   8          1.656    -0.444    21.720     6.291
    21   1          0.925     0.041     2.438     2.442
    22   1          0.925     0.036     2.499     2.472
    23   1          0.925     0.033     2.544     2.494
    24   1          0.924     0.029     2.596     2.519
    25   1          0.924     0.037     2.490     2.468
    26   1          0.924     0.034     2.528     2.486
    27   1          0.924     0.034     2.532     2.488
    28   1          0.923     0.036     2.502     2.474
    29   1          0.924     0.035     2.511     2.478
    30   1          0.924     0.031     2.575     2.510
    31   1          0.924     0.031     2.571     2.508
    32   1          0.924     0.039     2.464     2.455
    33   1          0.924     0.037     2.489     2.467
    34   1          0.925     0.021     2.722     2.580
    35   1          0.805     0.296     0.732     1.344
    36   1          0.926     0.047     2.363     2.404
    37   1          0.926     0.037     2.495     2.470
    38   1          0.924     0.028     2.616     2.529
    39   1          0.925     0.030     2.588     2.516
    40   1          0.924     0.032     2.553     2.499
    41   1          0.925     0.035     2.520     2.483
    42   1          0.924     0.032     2.556     2.500
    43   1          0.924     0.035     2.514     2.480
    44   1          0.805     0.291     0.749     1.359

 Mol. C6AA /au·bohr⁶  :      17652.432704
 Mol. C8AA /au·bohr⁸  :     405498.526114
 Mol. α(0) /au        :        200.886558


Wiberg/Mayer (AO) data.
largest (>0.10) Wiberg bond orders for each atom

 ---------------------------------------------------------------------------
     #   Z sym  total        # sym  WBO       # sym  WBO       # sym  WBO
 ---------------------------------------------------------------------------
     1   6      3.997 --     2      1.000    23      0.982    22      0.982
                            21      0.977
     2   6      3.990 --     1      1.000     3      0.991    16      0.969
                            19      0.955
     3   6      3.996 --     4      1.004     2      0.991    24      0.975
                            25      0.975
     4   6      3.996 --     3      1.004     5      0.992    27      0.975
                            26      0.971
     5   6      3.994 --    15      0.996     4      0.992     6      0.980
                            28      0.949
     6   6      3.995 --     7      0.996    16      0.990     5      0.980
                            29      0.961
     7   6      3.997 --     8      1.007     6      0.996    31      0.977
                            30      0.975
     8   6      3.998 --     9      1.010     7      1.007    33      0.968
                            32      0.961
     9   6      3.988 --    10      1.411    15      1.391     8      1.010
                            13      0.105
    10   6      3.983 --     9      1.411    11      1.387    34      0.965
                            14      0.103
    11   6      3.937 --    10      1.387    13      1.356    12      1.064
    12   8      2.111 --    11      1.064    35      0.891
    13   6      3.987 --    14      1.463    11      1.356    36      0.968
                             9      0.105
    14   6      3.991 --    13      1.463    15      1.401    37      0.964
                            10      0.103
    15   6      3.986 --    14      1.401     9      1.391     5      0.996
    16   6      3.992 --    17      0.994     6      0.990     2      0.969
                            38      0.964
    17   6      3.997 --    18      1.002    16      0.994    39      0.981
                            40      0.979
    18   6      3.996 --    17      1.002    41      0.983    42      0.979
                            19      0.976
    19   6      3.953 --    20      1.004    18      0.976    43      0.964
                             2      0.955
    20   8      1.977 --    19      1.004    44      0.892
    21   1      0.998 --     1      0.977
    22   1      0.999 --     1      0.982
    23   1      0.999 --     1      0.982
    24   1      0.999 --     3      0.975
    25   1      0.998 --     3      0.975
    26   1      0.998 --     4      0.971
    27   1      0.999 --     4      0.975
    28   1      0.998 --     5      0.949
    29   1      0.999 --     6      0.961
    30   1      0.998 --     7      0.975
    31   1      0.999 --     7      0.977
    32   1      0.998 --     8      0.961
    33   1      0.998 --     8      0.968
    34   1      0.999 --    10      0.965
    35   1      0.912 --    12      0.891
    36   1      0.997 --    13      0.968
    37   1      0.998 --    14      0.964
    38   1      0.999 --    16      0.964
    39   1      0.999 --    17      0.981
    40   1      0.999 --    17      0.979
    41   1      0.999 --    18      0.983
    42   1      0.999 --    18      0.979
    43   1      0.999 --    19      0.964
    44   1      0.915 --    20      0.892
 ---------------------------------------------------------------------------

Topologies differ in total number of bonds
Writing topology from bond orders to xtbtopo.mol

molecular dipole:
                 x           y           z       tot (Debye)
 q only:        0.100      -0.737      -0.419
   full:        0.190      -1.092      -0.602       3.206
molecular quadrupole (traceless):
                xx          xy          yy          xz          yz          zz
 q only:       -9.827      -2.888       4.706       3.482       0.152       5.120
  q+dip:      -13.437      -4.030       6.129       3.957       1.252       7.308
   full:      -13.018      -4.566       5.224       4.567       0.509       7.794

           -------------------------------------------------
          |               Frequency Printout                |
           -------------------------------------------------
 projected vibrational frequencies (cm⁻¹)
eigval :       -0.00    -0.00    -0.00    -0.00     0.00     0.00
eigval :       29.31    56.03    94.36   115.25   126.43   152.27
eigval :      200.62   207.05   230.87   239.54   242.71   275.53
eigval :      294.96   310.95   345.20   358.94   371.27   380.49
eigval :      398.13   411.14   435.54   439.45   449.10   476.14
eigval :      495.62   505.64   535.16   556.21   559.30   603.17
eigval :      609.94   644.02   673.51   733.57   760.92   800.77
eigval :      831.11   860.61   864.32   868.96   878.01   888.54
eigval :      908.76   925.72   952.58   964.25   979.57   999.55
eigval :     1024.90  1033.38  1046.11  1059.05  1064.25  1078.69
eigval :     1096.12  1102.59  1114.75  1121.84  1132.92  1137.17
eigval :     1148.78  1151.17  1162.22  1176.07  1183.50  1189.21
eigval :     1198.03  1210.19  1215.04  1230.61  1232.80  1245.08
eigval :     1263.09  1269.53  1275.49  1284.24  1288.16  1297.11
eigval :     1302.82  1304.57  1327.83  1331.45  1338.47  1344.62
eigval :     1347.40  1350.74  1355.69  1365.60  1386.71  1409.93
eigval :     1438.03  1473.01  1483.93  1492.20  1495.83  1497.99
eigval :     1500.09  1507.96  1517.94  1521.59  1586.56  1612.78
eigval :     2868.42  2904.35  2924.93  2942.32  2948.25  2961.44
eigval :     2965.02  2971.38  2974.64  2980.55  2984.49  2988.54
eigval :     2990.64  2997.62  3004.87  3014.24  3016.10  3038.17
eigval :     3041.04  3064.37  3101.98  3113.78  3522.64  3544.27
 reduced masses (amu)
    1:      5.66    2:      5.08    3:      4.27    4:      5.88    5:      6.44    6:      6.12
    7:      4.23    8:      3.98    9:      4.05   10:      2.30   11:      4.94   12:      1.95
   13:      2.34   14:      2.82   15:      1.74   16:      3.78   17:      3.91   18:      2.32
   19:      3.01   20:      3.65   21:      3.19   22:      1.26   23:      2.91   24:      2.05
   25:      3.02   26:      1.99   27:      1.59   28:      3.60   29:      3.71   30:      4.00
   31:      2.85   32:      3.98   33:      4.03   34:      3.09   35:      3.65   36:      2.76
   37:      3.56   38:      3.46   39:      6.07   40:      4.76   41:      2.29   42:      1.94
   43:      1.99   44:      1.53   45:      1.42   46:      1.52   47:      1.79   48:      2.13
   49:      1.30   50:      1.89   51:      1.91   52:      2.95   53:      1.98   54:      1.88
   55:      1.97   56:      1.86   57:      2.51   58:      2.01   59:      2.61   60:      1.78
   61:      2.32   62:      1.92   63:      2.15   64:      1.92   65:      1.55   66:      1.76
   67:      1.88   68:      1.22   69:      1.49   70:      1.55   71:      2.09   72:      1.84
   73:      1.44   74:      1.42   75:      1.59   76:      1.43   77:      1.41   78:      1.47
   79:      1.49   80:      1.46   81:      1.40   82:      1.47   83:      1.46   84:      2.14
   85:      1.51   86:      1.63   87:      1.62   88:      2.68   89:      1.84   90:      1.51
   91:      1.78   92:      1.46   93:      1.55   94:      1.35   95:      1.53   96:      1.23
   97:      4.66   98:      1.13   99:      1.08  100:      1.09  101:      1.13  102:      1.12
  103:      2.94  104:      1.08  105:      1.07  106:      1.07  107:      8.28  108:      8.36
  109:      1.07  110:      1.07  111:      1.08  112:      1.07  113:      1.07  114:      1.09
  115:      1.06  116:      1.09  117:      1.09  118:      1.07  119:      1.08  120:      1.08
  121:      1.06  122:      1.05  123:      1.06  124:      1.08  125:      1.07  126:      1.08
  127:      1.08  128:      1.06  129:      1.08  130:      1.09  131:      1.06  132:      1.06
 IR intensities (km·mol⁻¹)
    1:      0.06    2:      0.26    3:      0.51    4:      0.01    5:      0.02    6:      0.07
    7:      0.38    8:      0.14    9:      1.06   10:      0.65   11:      0.51   12:      1.84
   13:      1.69   14:      0.44   15:      2.83   16:      4.84   17:      1.16   18:      5.93
   19:      6.32   20:      5.39   21:      5.28   22:     89.47   23:      9.71   24:     37.82
   25:      1.76   26:     60.33   27:     87.29   28:      1.23   29:     22.75   30:      1.83
   31:      2.25   32:      2.07   33:      2.80   34:      2.57   35:      1.49   36:      3.42
   37:      2.40   38:      2.61   39:      2.94   40:      7.29   41:      1.13   42:     15.95
   43:     14.87   44:      1.16   45:      1.02   46:      0.60   47:     14.47   48:      3.04
   49:      0.14   50:      1.67   51:      5.28   52:     20.89   53:     15.69   54:      7.68
   55:     13.85   56:      4.62   57:     10.36   58:      4.84   59:      9.96   60:      0.69
   61:     21.25   62:      8.19   63:     73.84   64:      1.18   65:     14.04   66:      1.27
   67:     20.12   68:    210.82   69:      1.56   70:      3.15   71:      2.25   72:     32.62
   73:     21.97   74:     16.04   75:     36.88   76:     13.93   77:      4.90   78:      3.86
   79:      5.79   80:     12.11   81:      2.48   82:      3.62   83:      2.21   84:     46.64
   85:      7.48   86:      1.99   87:     12.24   88:      7.65   89:     16.00   90:     26.09
   91:      1.88   92:      0.99   93:      4.89   94:     63.68   95:      5.29   96:      5.57
   97:     69.65   98:      8.04   99:      0.42  100:      2.45  101:      2.82  102:      6.39
  103:     87.31  104:      0.78  105:      0.33  106:      1.86  107:     15.47  108:     89.64
  109:     29.36  110:     33.71  111:     22.79  112:     20.87  113:     29.75  114:     27.06
  115:     38.52  116:     15.76  117:     45.48  118:     33.39  119:     50.90  120:    110.79
  121:     59.19  122:     44.77  123:     31.89  124:     30.21  125:     76.45  126:     38.25
  127:     57.56  128:     25.29  129:     12.87  130:     36.78  131:     17.45  132:      9.80
 Raman intensities (Ä⁴*amu⁻¹)
    1:      0.00    2:      0.00    3:      0.00    4:      0.00    5:      0.00    6:      0.00
    7:      0.00    8:      0.00    9:      0.00   10:      0.00   11:      0.00   12:      0.00
   13:      0.00   14:      0.00   15:      0.00   16:      0.00   17:      0.00   18:      0.00
Molecule has no symmetry elements
It seems to be the C1 point group
   19:      0.00   20:      0.00   21:      0.00   22:      0.00   23:      0.00   24:      0.00
   25:      0.00   26:      0.00   27:      0.00   28:      0.00   29:      0.00   30:      0.00
   31:      0.00   32:      0.00   33:      0.00   34:      0.00   35:      0.00   36:      0.00
   37:      0.00   38:      0.00   39:      0.00   40:      0.00   41:      0.00   42:      0.00
   43:      0.00   44:      0.00   45:      0.00   46:      0.00   47:      0.00   48:      0.00
   49:      0.00   50:      0.00   51:      0.00   52:      0.00   53:      0.00   54:      0.00
   55:      0.00   56:      0.00   57:      0.00   58:      0.00   59:      0.00   60:      0.00
   61:      0.00   62:      0.00   63:      0.00   64:      0.00   65:      0.00   66:      0.00
   67:      0.00   68:      0.00   69:      0.00   70:      0.00   71:      0.00   72:      0.00
   73:      0.00   74:      0.00   75:      0.00   76:      0.00   77:      0.00   78:      0.00
   79:      0.00   80:      0.00   81:      0.00   82:      0.00   83:      0.00   84:      0.00
   85:      0.00   86:      0.00   87:      0.00   88:      0.00   89:      0.00   90:      0.00
   91:      0.00   92:      0.00   93:      0.00   94:      0.00   95:      0.00   96:      0.00
   97:      0.00   98:      0.00   99:      0.00  100:      0.00  101:      0.00  102:      0.00
  103:      0.00  104:      0.00  105:      0.00  106:      0.00  107:      0.00  108:      0.00
  109:      0.00  110:      0.00  111:      0.00  112:      0.00  113:      0.00  114:      0.00
  115:      0.00  116:      0.00  117:      0.00  118:      0.00  119:      0.00  120:      0.00
  121:      0.00  122:      0.00  123:      0.00  124:      0.00  125:      0.00  126:      0.00
  127:      0.00  128:      0.00  129:      0.00  130:      0.00  131:      0.00  132:      0.00
 output can be read by thermo (or use thermo option).
 writing <g98.out> molden fake output.
 recommended (thermochemical) frequency scaling factor: 1.0
           -------------------------------------------------
          |             Thermodynamic Functions             |
           -------------------------------------------------

c1  symmetry found (for desy threshold:  0.10E+00) used in thermo

          ...................................................
          :                      SETUP                      :
          :.................................................:
          :  # frequencies                         126      :
          :  # imaginary freq.                       0      :
          :  linear?                             false      :
          :  only rotor calc.                    false      :
          :  symmetry                               c1      :
          :  rotational number                       1      :
          :  scaling factor                  1.0000000      :
          :  rotor cutoff                   50.0000000 cm⁻¹ :
          :  imag. cutoff                  -20.0000000 cm⁻¹ :
          :.................................................:

    mode    ω/cm⁻¹     T·S(HO)/kcal·mol⁻¹    T·S(FR)/kcal·mol⁻¹   T·S(vib)
   ------------------------------------------------------------------------
       1     29.31    -1.75175 ( 10.56%)    -1.21467 ( 89.44%)    -1.27141
       2     56.03    -1.36917 ( 61.20%)    -1.02276 ( 38.80%)    -1.23476
       3     94.36    -1.06370 ( 92.69%)    -0.86840 (  7.31%)    -1.04942
       4    115.25    -0.94769 ( 96.58%)    -0.80915 (  3.42%)    -0.94295
       5    126.43    -0.89435 ( 97.61%)    -0.78172 (  2.39%)    -0.89166
       6    152.27    -0.78822 ( 98.85%)    -0.72664 (  1.15%)    -0.78751
       7    200.62    -0.63428 ( 99.62%)    -0.64494 (  0.38%)    -0.63432
       8    207.05    -0.61704 ( 99.66%)    -0.63560 (  0.34%)    -0.61710
       9    230.87    -0.55819 ( 99.78%)    -0.60334 (  0.22%)    -0.55829
      10    239.54    -0.53854 ( 99.81%)    -0.59242 (  0.19%)    -0.53864
      11    242.71    -0.53158 ( 99.82%)    -0.58852 (  0.18%)    -0.53168
      12    275.53    -0.46550 ( 99.89%)    -0.55096 (  0.11%)    -0.46559
Note: The following floating-point exceptions are signalling: IEEE_UNDERFLOW_FLAG
normal termination of xtb
      13    294.96    -0.43092 ( 99.92%)    -0.53076 (  0.08%)    -0.43100
   ------------------------------------------------------------------------

   temp. (K)  partition function   enthalpy   heat capacity  entropy
                                   cal/mol     cal/K/mol   cal/K/mol   J/K/mol
 298.15  VIB  0.200E+06             9223.252     66.071     53.057
         ROT  0.535E+07              888.727      2.981     33.766
         INT  0.107E+13            10111.980     69.052     86.824
         TR   0.138E+27             1481.212      4.968     42.705
         TOT                       11593.1921    74.0197   129.5285   541.9471

       T/K    H(0)-H(T)+PV         H(T)/Eh          T*S/Eh         G(T)/Eh
   ------------------------------------------------------------------------
    298.15    0.184749E-01    0.399455E+00    0.615432E-01    0.337912E+00
   ------------------------------------------------------------------------

         :::::::::::::::::::::::::::::::::::::::::::::::::::::
         ::                  THERMODYNAMIC                  ::
         :::::::::::::::::::::::::::::::::::::::::::::::::::::
         :: total free energy         -58.637862914679 Eh   ::
         ::.................................................::
         :: total energy              -58.975774922881 Eh   ::
         :: zero point energy           0.380980235399 Eh   ::
         :: G(RRHO) w/o ZPVE           -0.043068227197 Eh   ::
         :: G(RRHO) contrib.            0.337912008202 Eh   ::
         :::::::::::::::::::::::::::::::::::::::::::::::::::::

           -------------------------------------------------
          | TOTAL ENERGY              -58.975774922881 Eh   |
          | TOTAL ENTHALPY            -58.576319759899 Eh   |
          | TOTAL FREE ENERGY         -58.637862914679 Eh   |
          | GRADIENT NORM               0.000939096733 Eh/α |
          | HOMO-LUMO GAP               4.196884834230 eV   |
           -------------------------------------------------

------------------------------------------------------------------------
 * finished run on 2026/08/28 at 19:13:28.592     
------------------------------------------------------------------------
 total:
 * wall-time:     0 d,  0 h,  0 min, 17.082 sec
 *  cpu-time:     0 d,  0 h,  0 min, 16.955 sec
 * ratio c/w:     0.993 speedup
 SCF:
 * wall-time:     0 d,  0 h,  0 min,  0.141 sec
 *  cpu-time:     0 d,  0 h,  0 min,  0.109 sec
 * ratio c/w:     0.774 speedup
 analytical hessian:
 * wall-time:     0 d,  0 h,  0 min, 16.908 sec
 *  cpu-time:     0 d,  0 h,  0 min, 16.823 sec
 * ratio c/w:     0.995 speedup

