      -----------------------------------------------------------      
     |                   =====================                   |     
     |                           x T B                           |     
     |                   =====================                   |     
     |                         S. Grimme                         |     
     |          Mulliken Center for Theoretical Chemistry        |     
     |                    University of Bonn                     |     
      -----------------------------------------------------------      

   * xtb version 6.7.1 (unknown) compiled by 'root@buildkitsandbox' on 2026-08-28

   xtb is free software: you can redistribute it and/or modify it under
   the terms of the GNU Lesser General Public License as published by
   the Free Software Foundation, either version 3 of the License, or
   (at your option) any later version.
   
   xtb is distributed in the hope that it will be useful,
   but WITHOUT ANY WARRANTY; without even the implied warranty of
   MERCHANTABILITY or FITNESS FOR A PARTICULAR PURPOSE.  See the
   GNU Lesser General Public License for more details.
   
   Cite this work as:
   * C. Bannwarth, E. Caldeweyher, S. Ehlert, A. Hansen, P. Pracht,
     J. Seibert, S. Spicher, S. Grimme, WIREs Comput. Mol. Sci., 2020, 11,
     e01493. DOI: 10.1002/wcms.1493
   
   for GFN2-xTB:
   * C. Bannwarth, S. Ehlert and S. Grimme., J. Chem. Theory Comput., 2019,
     15, 1652-1671. DOI: 10.1021/acs.jctc.8b01176
   for GFN1-xTB:
   * S. Grimme, C. Bannwarth, P. Shushkov, J. Chem. Theory Comput., 2017,
     13, 1989-2009. DOI: 10.1021/acs.jctc.7b00118
   for GFN0-xTB:
   * P. Pracht, E. Caldeweyher, S. Ehlert, S. Grimme, ChemRxiv, 2019, preprint.
     DOI: 10.26434/chemrxiv.8326202.v1
   for GFN-FF:
   * S. Spicher and S. Grimme, Angew. Chem. Int. Ed., 2020, 59, 15665-15673.
     DOI: 10.1002/anie.202004239
   
   for ALPB and GBSA implicit solvation:
   * S. Ehlert, M. Stahn, S. Spicher, S. Grimme, J. Chem. Theory Comput.,
     2021, 17, 4250-4261. DOI: 10.1021/acs.jctc.1c00471
   
   for ddCOSMO and CPCM-X implicit solvation:
   * M. Stahn, S. Ehlert, S. Grimme, J. Phys. Chem. A,
     2023, XX, XXXX-XXXX. DOI: 10.1021/acs.jpca.3c04382
   
   for DFT-D4:
   * E. Caldeweyher, C. Bannwarth and S. Grimme, J. Chem. Phys., 2017,
     147, 034112. DOI: 10.1063/1.4993215
   * E. Caldeweyher, S. Ehlert, A. Hansen, H. Neugebauer, S. Spicher,
     C. Bannwarth and S. Grimme, J. Chem. Phys., 2019, 150, 154122.
     DOI: 10.1063/1.5090222
   * E. Caldeweyher, J.-M. Mewes, S. Ehlert and S. Grimme, Phys. Chem. Chem. Phys.
     2020, 22, 8499-8512. DOI: 10.1039/D0CP00502A
   
   for sTDA-xTB:
   * S. Grimme and C. Bannwarth, J. Chem. Phys., 2016, 145, 054103.
     DOI: 10.1063/1.4959605
   
   in the mass-spec context:
   * V. Asgeirsson, C. Bauer and S. Grimme, Chem. Sci., 2017, 8, 4879.
     DOI: 10.1039/c7sc00601b
   * J. Koopman and S. Grimme, ACS Omega 2019, 4, 12, 15120-15133.
     DOI: 10.1021/acsomega.9b02011
   
   for metadynamics refer to:
   * S. Grimme, J. Chem. Theory Comput., 2019, 155, 2847-2862
     DOI: 10.1021/acs.jctc.9b00143
   
   for SPH calculations refer to:
   * S. Spicher and S. Grimme, J. Chem. Theory Comput., 2021, 17, 1701-1714
     DOI: 10.1021/acs.jctc.0c01306
   
   for ONIOM refer to:
   * C. Plett, A. Katbashev, S. Ehlert, S. Grimme, M. Bursch,
     Phys. Chem. Chem. Phys., 2023, 25, 17860-17868. DOI: 10.1039/D3CP02178E
   
   for DIPRO refer to:
   * J. Kohn, N. Gildemeister, S. Grimme, D. Fazzi, A. Hansen,
     J. Chem. Phys. 159, 144106 (2023). DOI: 10.1063/5.0167484
   
   for PTB refer to:
   * S. Grimme, M. Mueller, A. Hansen, J. Chem. Phys., 2023, 158, 124111.
     DOI: 10.1063/5.0137838
   
   with help from (in alphabetical order)
   P. Atkinson, C. Bannwarth, F. Bohle, G. Brandenburg, E. Caldeweyher,
   M. Checinski, S. Dohm, S. Ehlert, S. Ehrlich, M. Friede, T. Froitzheim,
   I. Gerasimov, C. Hölzer, A. Katbashev, J. Kohn, J. Koopman, C. Lavigne,
   S. Lehtola, F. März, M. Müller, F. Musil, H. Neugebauer, J. Pisarek,
   C. Plett, P. Pracht, F. Pultar, J. Seibert, P. Shushkov, S. Spicher,
   M. Stahn, M. Steiner, T. Strunk, J. Stückrath, T. Rose, and J. Unsleber
   
 * started run on 2026/08/28 at 19:10:08.085     
   ID    Z sym.   atoms
    1    6 C      1-11, 13-19
    2    8 O      12, 20
    3    1 H      21-44

           -------------------------------------------------
          |                Calculation Setup                |
           -------------------------------------------------

          program call               : xtb in.xyz --gfn 2 --opt --norestart
          hostname                   : 756d39058c4f
          coordinate file            : in.xyz
          random seed                :            2043806838


           -------------------------------------------------
          |                 G F N 2 - x T B                 |
           -------------------------------------------------

        Reference                      10.1021/acs.jctc.8b01176
      * Hamiltonian:
        H0-scaling (s, p, d)           1.850000    2.230000    2.230000
        zeta-weighting                 0.500000
      * Dispersion:
        s8                             2.700000
        a1                             0.520000
        a2                             5.000000
        s9                             5.000000
      * Repulsion:
        kExp                           1.500000    1.000000
        rExp                           1.000000
      * Coulomb:
        alpha                          2.000000
        third order                    shell-resolved
        anisotropic                    true
        a3                             3.000000
        a5                             4.000000
        cn-shift                       1.200000
        cn-exp                         4.000000
        max-rad                        5.000000


          ...................................................
          :                      SETUP                      :
          :.................................................:
          :  # basis functions                 104          :
          :  # atomic orbitals                 104          :
          :  # shells                           64          :
          :  # electrons                       108          :
          :  max. iterations                   250          :
          :  Hamiltonian                  GFN2-xTB          :
          :  restarted?                      false          :
          :  GBSA solvation                  false          :
          :  PC potential                    false          :
          :  electronic temp.          300.0000000     K    :
          :  accuracy                    1.0000000          :
          :  -> integral cutoff          0.2500000E+02      :
          :  -> integral neglect         0.1000000E-07      :
          :  -> SCF convergence          0.1000000E-05 Eh   :
          :  -> wf. convergence          0.1000000E-03 e    :
          :  Broyden damping             0.4000000          :
          :  net charge                          0          :
          :  unpaired electrons                  0          :
          ...................................................

 iter      E             dE          RMSdq      gap      omega  full diag
   1    -59.6922521 -0.596923E+02  0.337E+00    3.98       0.0  T
   2    -59.7518937 -0.596416E-01  0.200E+00    4.07       1.0  T
   3    -59.7492706  0.262320E-02  0.812E-01    3.99       1.0  T
   4    -59.7553327 -0.606214E-02  0.301E-01    4.04       1.0  T
   5    -59.7571286 -0.179593E-02  0.787E-02    4.07       1.0  T
   6    -59.7571605 -0.318812E-04  0.410E-02    4.04       1.0  T
   7    -59.7571782 -0.177027E-04  0.128E-02    4.05       1.2  T
   8    -59.7571796 -0.144205E-05  0.474E-03    4.05       3.2  T
   9    -59.7571799 -0.238843E-06  0.199E-03    4.05       7.6  T
  10    -59.7571800 -0.643716E-07  0.936E-04    4.05      16.1  T
  11    -59.7571800 -0.165211E-07  0.326E-04    4.05      46.2  T

   *** convergence criteria satisfied after 11 iterations ***

         #    Occupation            Energy/Eh            Energy/eV
      -------------------------------------------------------------
         1        2.0000           -0.7042246             -19.1629
       ...           ...                  ...                  ...
        48        2.0000           -0.4218008             -11.4778
        49        2.0000           -0.4157754             -11.3138
        50        2.0000           -0.4109369             -11.1822
        51        2.0000           -0.4001393             -10.8883
        52        2.0000           -0.3913922             -10.6503
        53        2.0000           -0.3896004             -10.6016
        54        2.0000           -0.3697787             -10.0622 (HOMO)
        55                         -0.2209423              -6.0121 (LUMO)
        56                         -0.2068036              -5.6274
        57                         -0.0911527              -2.4804
        58                          0.0079745               0.2170
        59                          0.0277124               0.7541
       ...                                ...                  ...
       104                          0.6286195              17.1056
      -------------------------------------------------------------
                  HL-Gap            0.1488364 Eh            4.0500 eV
             Fermi-level           -0.2953605 Eh           -8.0372 eV

 SCC (total)                   0 d,  0 h,  0 min,  0.113 sec
 SCC setup                      ...        0 min,  0.001 sec (  1.214%)
 Dispersion                     ...        0 min,  0.001 sec (  0.535%)
 classical contributions        ...        0 min,  0.000 sec (  0.132%)
 integral evaluation            ...        0 min,  0.009 sec (  7.578%)
 iterations                     ...        0 min,  0.073 sec ( 64.405%)
 molecular gradient             ...        0 min,  0.029 sec ( 25.309%)
 printout                       ...        0 min,  0.001 sec (  0.794%)

         :::::::::::::::::::::::::::::::::::::::::::::::::::::
         ::                     SUMMARY                     ::
         :::::::::::::::::::::::::::::::::::::::::::::::::::::
         :: total energy             -58.970260198294 Eh    ::
         :: gradient norm              0.046013712088 Eh/a0 ::
         :: HOMO-LUMO gap              4.050044489270 eV    ::
         ::.................................................::
         :: SCC energy               -59.756662416344 Eh    ::
         :: -> isotropic ES            0.050312071729 Eh    ::
         :: -> anisotropic ES          0.011506537768 Eh    ::
         :: -> anisotropic XC          0.022155368055 Eh    ::
         :: -> dispersion             -0.047285612670 Eh    ::
         :: repulsion energy           0.786402218051 Eh    ::
         :: add. restraining           0.000000000000 Eh    ::
         :: total charge              -0.000000000000 e     ::
         :::::::::::::::::::::::::::::::::::::::::::::::::::::

      ----------------------------------------------------------- 
     |                   =====================                   |
     |                        A N C O P T                        |
     |                   =====================                   |
     |               Approximate Normal Coordinate               |
     |                Rational Function Optimizer                |
      ----------------------------------------------------------- 

          ...................................................
          :                      SETUP                      :
          :.................................................:
          :   optimization level            normal          :
          :   max. optcycles                   200          :
          :   ANC micro-cycles                  20          :
          :   degrees of freedom               126          :
          :.................................................:
          :   RF solver                   davidson          :
          :   write xtbopt.log                true          :
          :   linear?                        false          :
          :   energy convergence         0.5000000E-05 Eh   :
          :   grad. convergence          0.1000000E-02 Eh/α :
          :   maximum RF displ.          1.0000000          :
          :   Hlow (freq-cutoff)         0.1000000E-01      :
          :   Hmax (freq-cutoff)         5.0000000          :
          :   S6 in model hess.         20.0000000          :
          ...................................................

generating ANC from exact Hessian ...
Using Lindh-Hessian (1995)
 Shifting diagonal of input Hessian by    9.4387186313450513E-003
 Lowest  eigenvalues of input Hessian
    0.000000    0.000000    0.000000    0.000000    0.000000    0.000000
    0.010000    0.010712    0.012004    0.012078    0.014185    0.014761
    0.016270    0.016817    0.017916    0.018166    0.019223    0.020121
 Highest eigenvalues
    1.489679    1.551593    1.664996    1.808953    1.989700    2.050251


........................................................................
.............................. CYCLE    1 ..............................
........................................................................

 iter      E             dE          RMSdq      gap      omega  full diag
   1    -59.7571800 -0.597572E+02  0.984E-05    4.05       0.0  T
   2    -59.7571800 -0.405294E-10  0.572E-05    4.05     263.3  T
   3    -59.7571800  0.856915E-11  0.350E-05    4.05     430.4  T
     SCC iter.                  ...        0 min,  0.015 sec
     gradient                   ...        0 min,  0.019 sec
 * total energy  :   -58.9702602 Eh     change       -0.1209479E-08 Eh
   gradient norm :     0.0460145 Eh/α   predicted     0.0000000E+00 (-100.00%)
   displ. norm   :     0.2951983 α      lambda       -0.7383905E-02
   maximum displ.:     0.0886634 α      in ANC's #20, #24, #21, ...

........................................................................
.............................. CYCLE    2 ..............................
........................................................................

 iter      E             dE          RMSdq      gap      omega  full diag
   1    -59.7883600 -0.597884E+02  0.173E-01    4.16       0.0  T
   2    -59.7883929 -0.329076E-04  0.105E-01    4.16       1.0  T
   3    -59.7883561  0.367488E-04  0.285E-02    4.16       1.0  T
   4    -59.7884000 -0.438712E-04  0.685E-03    4.16       2.2  T
   5    -59.7884017 -0.166151E-05  0.258E-03    4.16       5.8  T
   6    -59.7884017 -0.321731E-07  0.114E-03    4.16      13.2  T
   7    -59.7884017 -0.103978E-07  0.386E-04    4.16      39.1  T
   8    -59.7884017 -0.118690E-08  0.169E-04    4.16      89.1  T
     SCC iter.                  ...        0 min,  0.039 sec
     gradient                   ...        0 min,  0.033 sec
 * total energy  :   -58.9748425 Eh     change       -0.4582252E-02 Eh
   gradient norm :     0.0160753 Eh/α   predicted    -0.4013856E-02 ( -12.40%)
   displ. norm   :     0.1796297 α      lambda       -0.1175487E-02
   maximum displ.:     0.0588697 α      in ANC's #3, #13, #8, ...

........................................................................
.............................. CYCLE    3 ..............................
........................................................................

 iter      E             dE          RMSdq      gap      omega  full diag
   1    -59.8016657 -0.598017E+02  0.667E-02    4.20       0.0  T
   2    -59.8016694 -0.368913E-05  0.403E-02    4.20       1.0  T
   3    -59.8016632  0.620120E-05  0.112E-02    4.20       1.3  T
   4    -59.8016706 -0.747039E-05  0.231E-03    4.20       6.5  T
   5    -59.8016707 -0.117426E-06  0.100E-03    4.20      15.1  T
   6    -59.8016707 -0.369783E-08  0.395E-04    4.20      38.2  T
   7    -59.8016707 -0.163951E-08  0.135E-04    4.20     111.6  T
     SCC iter.                  ...        0 min,  0.055 sec
     gradient                   ...        0 min,  0.015 sec
 * total energy  :   -58.9755091 Eh     change       -0.6666657E-03 Eh
   gradient norm :     0.0047709 Eh/α   predicted    -0.6067307E-03 (  -8.99%)
   displ. norm   :     0.0909094 α      lambda       -0.1406389E-03
   maximum displ.:     0.0452870 α      in ANC's #3, #13, #8, ...

........................................................................
.............................. CYCLE    4 ..............................
........................................................................

 iter      E             dE          RMSdq      gap      omega  full diag
   1    -59.8025793 -0.598026E+02  0.215E-02    4.20       0.0  T
   2    -59.8025798 -0.513941E-06  0.127E-02    4.20       1.2  T
   3    -59.8025795  0.284446E-06  0.372E-03    4.20       4.1  T
   4    -59.8025799 -0.402595E-06  0.840E-04    4.20      17.9  T
   5    -59.8025799 -0.119266E-07  0.428E-04    4.20      35.2  T
     SCC iter.                  ...        0 min,  0.024 sec
     gradient                   ...        0 min,  0.025 sec
 * total energy  :   -58.9756135 Eh     change       -0.1044295E-03 Eh
   gradient norm :     0.0028769 Eh/α   predicted    -0.7090474E-04 ( -32.10%)
   displ. norm   :     0.1263531 α      lambda       -0.1201893E-03
   maximum displ.:     0.0655150 α      in ANC's #3, #13, #5, ...

........................................................................
.............................. CYCLE    5 ..............................
........................................................................

 iter      E             dE          RMSdq      gap      omega  full diag
   1    -59.8020429 -0.598020E+02  0.270E-02    4.19       0.0  T
   2    -59.8020438 -0.923473E-06  0.163E-02    4.20       1.0  T
   3    -59.8020428  0.988983E-06  0.608E-03    4.20       2.5  T
   4    -59.8020441 -0.131024E-05  0.114E-03    4.20      13.3  T
   5    -59.8020441 -0.254855E-07  0.575E-04    4.20      26.2  T
   6    -59.8020441 -0.309675E-08  0.244E-04    4.20      61.8  T
     SCC iter.                  ...        0 min,  0.028 sec
     gradient                   ...        0 min,  0.022 sec
 * total energy  :   -58.9756890 Eh     change       -0.7541857E-04 Eh
   gradient norm :     0.0035774 Eh/α   predicted    -0.6105469E-04 ( -19.05%)
   displ. norm   :     0.0708273 α      lambda       -0.3912838E-04
   maximum displ.:     0.0335116 α      in ANC's #3, #13, #5, ...

........................................................................
.............................. CYCLE    6 ..............................
........................................................................

 iter      E             dE          RMSdq      gap      omega  full diag
   1    -59.8015800 -0.598016E+02  0.145E-02    4.20       0.0  T
   2    -59.8015801 -0.112959E-06  0.878E-03    4.20       1.7  T
   3    -59.8015799  0.208711E-06  0.229E-03    4.20       6.6  T
   4    -59.8015802 -0.259969E-06  0.494E-04    4.20      30.5  T
   5    -59.8015802 -0.260152E-08  0.247E-04    4.20      61.0  T
     SCC iter.                  ...        0 min,  0.024 sec
     gradient                   ...        0 min,  0.022 sec
 * total energy  :   -58.9757187 Eh     change       -0.2970123E-04 Eh
   gradient norm :     0.0030406 Eh/α   predicted    -0.1966281E-04 ( -33.80%)
   displ. norm   :     0.0920135 α      lambda       -0.4212364E-04
   maximum displ.:     0.0463030 α      in ANC's #2, #5, #3, ...

........................................................................
.............................. CYCLE    7 ..............................
........................................................................

 iter      E             dE          RMSdq      gap      omega  full diag
   1    -59.8013469 -0.598013E+02  0.200E-02    4.20       0.0  T
   2    -59.8013471 -0.131568E-06  0.119E-02    4.20       1.3  T
   3    -59.8013471 -0.238174E-08  0.116E-03    4.20      12.9  T
   4    -59.8013471 -0.335257E-07  0.522E-04    4.20      28.9  T
   5    -59.8013471 -0.196103E-08  0.252E-04    4.20      59.8  T
     SCC iter.                  ...        0 min,  0.024 sec
     gradient                   ...        0 min,  0.017 sec
 * total energy  :   -58.9757467 Eh     change       -0.2798812E-04 Eh
   gradient norm :     0.0014130 Eh/α   predicted    -0.2124150E-04 ( -24.11%)
   displ. norm   :     0.0893274 α      lambda       -0.1578400E-04
   maximum displ.:     0.0520834 α      in ANC's #2, #5, #13, ...

........................................................................
.............................. CYCLE    8 ..............................
........................................................................

 iter      E             dE          RMSdq      gap      omega  full diag
   1    -59.8015332 -0.598015E+02  0.207E-02    4.20       0.0  T
   2    -59.8015334 -0.216774E-06  0.123E-02    4.20       1.2  T
   3    -59.8015332  0.245603E-06  0.284E-03    4.20       5.3  T
   4    -59.8015335 -0.312476E-06  0.578E-04    4.20      26.1  T
   5    -59.8015335 -0.538689E-08  0.297E-04    4.20      50.7  T
     SCC iter.                  ...        0 min,  0.025 sec
     gradient                   ...        0 min,  0.026 sec
 * total energy  :   -58.9757608 Eh     change       -0.1409887E-04 Eh
   gradient norm :     0.0008517 Eh/α   predicted    -0.7926220E-05 ( -43.78%)
   displ. norm   :     0.0432238 α      lambda       -0.6585815E-05
   maximum displ.:     0.0262198 α      in ANC's #2, #10, #11, ...

........................................................................
.............................. CYCLE    9 ..............................
........................................................................

 iter      E             dE          RMSdq      gap      omega  full diag
   1    -59.8018478 -0.598018E+02  0.104E-02    4.20       0.0  T
   2    -59.8018478 -0.271015E-07  0.617E-03    4.20       2.4  T
   3    -59.8018478  0.436448E-07  0.111E-03    4.20      13.6  T
   4    -59.8018478 -0.544189E-07  0.216E-04    4.20      69.9  T
   5    -59.8018478 -0.550529E-09  0.109E-04    4.20     138.9  T
     SCC iter.                  ...        0 min,  0.027 sec
     gradient                   ...        0 min,  0.021 sec
 * total energy  :   -58.9757682 Eh     change       -0.7487983E-05 Eh
   gradient norm :     0.0008449 Eh/α   predicted    -0.3296810E-05 ( -55.97%)
   displ. norm   :     0.0568952 α      lambda       -0.5859079E-05
   maximum displ.:     0.0350118 α      in ANC's #2, #10, #11, ...

........................................................................
.............................. CYCLE   10 ..............................
........................................................................

 iter      E             dE          RMSdq      gap      omega  full diag
   1    -59.8018127 -0.598018E+02  0.134E-02    4.20       0.0  T
   2    -59.8018127 -0.278910E-07  0.790E-03    4.20       1.9  T
   3    -59.8018127  0.800995E-08  0.748E-04    4.20      20.2  T
   4    -59.8018128 -0.193737E-07  0.272E-04    4.20      55.5  T
     SCC iter.                  ...        0 min,  0.019 sec
     gradient                   ...        0 min,  0.021 sec
 * total energy  :   -58.9757735 Eh     change       -0.5275182E-05 Eh
   gradient norm :     0.0004418 Eh/α   predicted    -0.2937791E-05 ( -44.31%)
   displ. norm   :     0.0569707 α      lambda        0.2815274E-05
   maximum displ.:     0.0350655 α      in ANC's #2, #10, #11, ...

........................................................................
.............................. CYCLE   11 ..............................
........................................................................

 iter      E             dE          RMSdq      gap      omega  full diag
   1    -59.8016976 -0.598017E+02  0.134E-02    4.20       0.0  T
   2    -59.8016976 -0.280206E-07  0.792E-03    4.20       1.9  T
   3    -59.8016976  0.133795E-07  0.821E-04    4.20      18.4  T
   4    -59.8016976 -0.255720E-07  0.278E-04    4.20      54.2  T
     SCC iter.                  ...        0 min,  0.017 sec
     gradient                   ...        0 min,  0.022 sec
 * total energy  :   -58.9757717 Eh     change        0.1815494E-05 Eh
   gradient norm :     0.0011932 Eh/α   predicted     0.1409661E-05 ( -22.35%)
   displ. norm   :     0.0289144 α      lambda       -0.4654987E-05
   maximum displ.:     0.0124942 α      in ANC's #2, #5, #11, ...

........................................................................
.............................. CYCLE   12 ..............................
........................................................................

 iter      E             dE          RMSdq      gap      omega  full diag
   1    -59.8019222 -0.598019E+02  0.747E-03    4.20       0.0  T
   2    -59.8019222 -0.294238E-07  0.447E-03    4.20       3.4  T
   3    -59.8019222  0.302932E-08  0.668E-04    4.20      22.6  T
   4    -59.8019222 -0.135826E-07  0.282E-04    4.20      53.4  T
     SCC iter.                  ...        0 min,  0.028 sec
     gradient                   ...        0 min,  0.027 sec
 * total energy  :   -58.9757749 Eh     change       -0.3220766E-05 Eh
   gradient norm :     0.0009422 Eh/α   predicted    -0.2329154E-05 ( -27.68%)
   displ. norm   :     0.0164103 α      lambda       -0.1344444E-05
   maximum displ.:     0.0097664 α      in ANC's #3, #11, #4, ...

   *** GEOMETRY OPTIMIZATION CONVERGED AFTER 12 ITERATIONS ***

------------------------------------------------------------------------
 total energy gain   :        -0.0055147 Eh       -3.4605 kcal/mol
 total RMSD          :         0.1140922 a0        0.0604 Å
 total power (kW/mol):        -1.2065754 (step)  -19.4924 (real)
------------------------------------------------------------------------

 ANCopt (total)                0 d,  0 h,  0 min,  0.743 sec
 optimizer setup                ...        0 min,  0.003 sec (  0.380%)
 model hessian                  ...        0 min,  0.026 sec (  3.443%)
 ANC generation                 ...        0 min,  0.004 sec (  0.572%)
 coordinate transformation      ...        0 min,  0.001 sec (  0.144%)
 single point calculation       ...        0 min,  0.700 sec ( 94.242%)
 optimization log               ...        0 min,  0.001 sec (  0.188%)
 hessian update                 ...        0 min,  0.000 sec (  0.065%)
 rational function              ...        0 min,  0.003 sec (  0.357%)

================
 final structure:
================
44
 xtb: 6.7.1 (unknown)
C           -2.62375591021627        0.70778799057746       -1.65979926866227
C           -2.63920474062855        0.53664979678601       -0.13732887691544
C           -1.94267911716809        1.71945284294532        0.53007600960099
C           -0.43594738881503        1.70377248648394        0.25008048349243
C            0.22076869400157        0.37090873463212        0.64069538389509
C           -0.49615242896731       -0.81654097902792       -0.02451262127554
C            0.18161647959971       -2.10668706320556        0.42456700910680
C            1.58074780285001       -2.16151005112420       -0.17320219227982
C            2.33295397899952       -0.86795361392030       -0.00888728586849
C            3.70196367694836       -0.88771977940521       -0.24754610166199
C            4.47348066273888        0.25616737156803       -0.12884615402230
O            5.81670006003542        0.25588115269832       -0.35884118766887
C            3.85864640072652        1.44421250668544        0.24589276931029
C            2.49977767223918        1.46377092924909        0.48071492450058
C            1.70724729252012        0.32649514585939        0.34855178136003
C           -1.96827168914185       -0.75387880030884        0.35680566640418
C           -2.91335245437532       -1.85872361534440       -0.11868146221606
C           -4.31142103300733       -1.22847273500561        0.02459142306748
C           -4.09271186186865        0.27621417981230        0.32843810646150
O           -5.07417655206663        1.11294169615642       -0.21799996922842
H           -1.61124283473735        0.72175577690112       -2.04915155614921
H           -3.08766869703429        1.65809875148371       -1.92126921674353
H           -3.16300361251575       -0.09407796242987       -2.15778755165107
H           -2.10411345480744        1.66494119226344        1.60964120447736
H           -2.37006866230733        2.66116303538002        0.18030460123264
H            0.01077947277427        2.51585980456918        0.82416322541309
H           -0.24401857516333        1.90521717337273       -0.80487585004309
H            0.09955696940366        0.25589446015322        1.72807192947084
H           -0.38978032380028       -0.74216447066533       -1.11057537457257
H           -0.39108446305487       -2.97577750052490        0.09756580172640
H            0.23790748963157       -2.13040863405827        1.51492866410427
H            1.50545415849356       -2.38003652216773       -1.24424906193400
H            2.15448340407769       -2.97405926635046        0.27963868208582
H            4.17277077425832       -1.82231745667651       -0.52926163444534
H            6.10247137043247       -0.63238483392803       -0.60329881818011
H            4.45727239538222        2.33464406340052        0.35048939254575
H            2.05401478596516        2.39858806343554        0.78019542259855
H           -2.01930158655419       -0.73744229320404        1.45302728775725
H           -2.81902671890739       -2.76100176894767        0.48359337213565
H           -2.70125352589492       -2.12466833663750       -1.15470741899513
H           -4.88278587261442       -1.69851530826088        0.82314483266143
H           -4.89328769784869       -1.33317645181881       -0.89292559950180
H           -4.15916360718342        0.45305899161587        1.40676246887223
H           -5.07190073239967        1.00153129698287       -1.17501324026563

 Bond Distances (Angstroems)
 ---------------------------
C1-C2=1.5321         C1-H21=1.0849        C1-H22=1.0893        C1-H23=1.0871        C2-C1=1.5321         C2-C3=1.5263         
C2-C16=1.5362        C2-C19=1.5484        C3-C2=1.5263         C3-C4=1.5326         C3-H24=1.0929        C3-H25=1.0917        
C4-C3=1.5326         C4-C5=1.5364         C4-H26=1.0902        C4-H27=1.0910        C5-C4=1.5364         C5-C6=1.5383         
C5-C15=1.5156        C5-H28=1.1001        C6-C5=1.5383         C6-C7=1.5250         C6-C16=1.5220        C6-H29=1.0938        
C7-C6=1.5250         C7-C8=1.5225         C7-H30=1.0910        C7-H31=1.0921        C8-C7=1.5225         C8-C9=1.5054         
C8-H32=1.0957        C8-H33=1.0929        C9-C8=1.5054         C9-C10=1.3898        C9-C15=1.3950        C10-C9=1.3898        
C10-C11=1.3848       C10-H34=1.0837       C11-C10=1.3848       C11-O12=1.3628       C11-C13=1.3892       O12-C11=1.3628       
O12-H35=0.9646       C13-C11=1.3892       C13-C14=1.3791       C13-H36=1.0780       C14-C13=1.3791       C14-C15=1.3925       
C14-H37=1.0781       C15-C5=1.5156        C15-C9=1.3950        C15-C14=1.3925       C16-C2=1.5362        C16-C6=1.5220        
C16-C17=1.5297       C16-H38=1.0975       C17-C16=1.5297       C17-C18=1.5402       C17-H39=1.0889       C17-H40=1.0904       
C18-C17=1.5402       C18-C19=1.5506       C18-H41=1.0886       C18-H42=1.0915       C19-C2=1.5484        C19-C18=1.5506       
C19-O20=1.4007       C19-H43=1.0947       O20-C19=1.4007       O20-H44=0.9635       H21-C1=1.0849        H22-C1=1.0893        
H23-C1=1.0871        H24-C3=1.0929        H25-C3=1.0917        H26-C4=1.0902        H27-C4=1.0910        H28-C5=1.1001        
H29-C6=1.0938        H30-C7=1.0910        H31-C7=1.0921        H32-C8=1.0957        H33-C8=1.0929        H34-C10=1.0837       
H35-O12=0.9646       H36-C13=1.0780       H37-C14=1.0781       H38-C16=1.0975       H39-C17=1.0889       H40-C17=1.0904       
H41-C18=1.0886       H42-C18=1.0915       H43-C19=1.0947       H44-O20=0.9635       
 C  H  Rav=1.0902 sigma=0.0053  Rmin=1.0780  Rmax=1.1001    22
 C  C  Rav=1.4901 sigma=0.0651  Rmin=1.3791  Rmax=1.5506    21
 O  H  Rav=0.9640 sigma=0.0006  Rmin=0.9635  Rmax=0.9646     2
 O  C  Rav=1.3817 sigma=0.0190  Rmin=1.3628  Rmax=1.4007     2

 selected bond angles (degree)
 --------------------
H21-C1-C2=111.56               H22-C1-C2=109.37               H22-C1-H21=107.46              H23-C1-C2=111.58               
H23-C1-H21=107.94              H23-C1-H22=108.80              C3-C2-C1=110.08                C16-C2-C1=114.15               
C16-C2-C3=108.12               C19-C2-C1=109.10               C19-C2-C3=115.29               C19-C2-C16= 99.90              
C4-C3-C2=111.15                H24-C3-C2=109.02               H24-C3-C4=108.98               H25-C3-C2=110.47               
H25-C3-C4=109.58               H25-C3-H24=107.56              C5-C4-C3=112.50                H26-C4-C3=107.40               
H26-C4-C5=109.71               H27-C4-C3=110.35               H27-C4-C5=109.32               H27-C4-H26=107.43              
C6-C5-C4=111.13                C15-C5-C4=113.31               C15-C5-C6=110.56               H28-C5-C4=107.15               
H28-C5-C6=107.18               H28-C5-C15=107.19              C7-C6-C5=108.58                C16-C6-C5=108.10               
C16-C6-C7=113.01               H29-C6-C5=109.36               H29-C6-C7=107.86               H29-C6-C16=109.88              
C8-C7-C6=108.86                H30-C7-C6=110.63               H30-C7-C8=109.64               H31-C7-C6=109.59               
H31-C7-C8=110.11               H31-C7-H30=108.00              C9-C8-C7=112.67                H32-C8-C7=109.14               
H32-C8-C9=108.20               H33-C8-C7=110.27               H33-C8-C9=109.35               H33-C8-H32=107.03              
C10-C9-C8=117.47               C15-C9-C8=122.66               C15-C9-C10=119.87              C11-C10-C9=121.49              
H34-C10-C9=119.00              H34-C10-C11=119.51             

 selected dihedral angles (degree)
 ---------------------------------
C3-C2-C1-H21= 62.37           C3-C2-C1-H22=303.62           C3-C2-C1-H23=183.20           C16-C2-C1-H21=300.58          
C16-C2-C1-H22=181.83          C16-C2-C1-H23= 61.40          C19-C2-C1-H21=189.81          C19-C2-C1-H22= 71.06          
C19-C2-C1-H23=310.63          C4-C3-C2-C1=291.02            C4-C3-C2-C16= 56.33           C4-C3-C2-C19=167.10           
H24-C3-C2-C1=170.88           H24-C3-C2-C16=296.19          H24-C3-C2-C19= 46.96          H25-C3-C2-C1= 52.89           
H25-C3-C2-C16=178.20          H25-C3-C2-C19=288.98          C5-C4-C3-C2=305.81            C5-C4-C3-H24= 65.98           
C5-C4-C3-H25=183.42           H26-C4-C3-C2=185.00           H26-C4-C3-H24=305.16          H26-C4-C3-H25= 62.61          
H27-C4-C3-C2= 68.19           H27-C4-C3-H24=188.35          H27-C4-C3-H25=305.80          C6-C5-C4-C3= 53.78            
C6-C5-C4-H26=173.26           C6-C5-C4-H27=290.82           C15-C5-C4-C3=178.98           C15-C5-C4-H26=298.46          
C15-C5-C4-H27= 56.02          H28-C5-C4-C3=296.99           H28-C5-C4-H26= 56.47          H28-C5-C4-H27=174.03          
C7-C6-C5-C4=181.19            C7-C6-C5-C15= 54.47           C7-C6-C5-H28=297.96           C16-C6-C5-C4=304.13           
C16-C6-C5-C15=177.41          C16-C6-C5-H28= 60.90          H29-C6-C5-C4= 63.74           H29-C6-C5-C15=297.01          
H29-C6-C5-H28=180.51          C8-C7-C6-C5=291.84            C8-C7-C6-C16=171.92           C8-C7-C6-H29= 50.25           
H30-C7-C6-C5=171.30           H30-C7-C6-C16= 51.38          H30-C7-C6-H29=289.71          H31-C7-C6-C5= 52.32           
H31-C7-C6-C16=292.40          H31-C7-C6-H29=170.73          C9-C8-C7-C6= 46.84            C9-C8-C7-H30=167.98           
C9-C8-C7-H31=286.67           H32-C8-C7-C6=286.62           H32-C8-C7-H30= 47.76          H32-C8-C7-H31=166.45          
H33-C8-C7-C6=169.32           H33-C8-C7-H30=290.47          H33-C8-C7-H31= 49.16          C10-C9-C8-C7=166.29           
C10-C9-C8-H32=287.05          C10-C9-C8-H33= 43.29          C15-C9-C8-C7=345.35           C15-C9-C8-H32=106.10          
C15-C9-C8-H33=222.35          C11-C10-C9-C8=179.61          C11-C10-C9-C15=  0.52         H34-C10-C9-C8=359.39          
H34-C10-C9-C15=180.31         
           -------------------------------------------------
          |                Final Singlepoint                |
           -------------------------------------------------

          ...................................................
          :                      SETUP                      :
          :.................................................:
          :  # basis functions                 104          :
          :  # atomic orbitals                 104          :
          :  # shells                           64          :
          :  # electrons                       108          :
          :  max. iterations                   250          :
          :  Hamiltonian                  GFN2-xTB          :
          :  restarted?                      false          :
          :  GBSA solvation                  false          :
          :  PC potential                    false          :
          :  electronic temp.          300.0000000     K    :
          :  accuracy                    1.0000000          :
          :  -> integral cutoff          0.2500000E+02      :
          :  -> integral neglect         0.1000000E-07      :
          :  -> SCF convergence          0.1000000E-05 Eh   :
          :  -> wf. convergence          0.1000000E-03 e    :
          :  Broyden damping             0.4000000          :
          :  net charge                          0          :
          :  unpaired electrons                  0          :
          ...................................................

 iter      E             dE          RMSdq      gap      omega  full diag
   1    -59.8019222 -0.598019E+02  0.154E-04    4.20       0.0  T
   2    -59.8019222 -0.188088E-09  0.994E-05    4.20     151.7  T
   3    -59.8019222 -0.127834E-09  0.630E-05    4.20     239.3  T

   *** convergence criteria satisfied after 3 iterations ***

         #    Occupation            Energy/Eh            Energy/eV
      -------------------------------------------------------------
         1        2.0000           -0.7049967             -19.1839
       ...           ...                  ...                  ...
        48        2.0000           -0.4216275             -11.4731
        49        2.0000           -0.4173335             -11.3562
        50        2.0000           -0.4100259             -11.1574
        51        2.0000           -0.3992700             -10.8647
        52        2.0000           -0.3928545             -10.6901
        53        2.0000           -0.3911095             -10.6426
        54        2.0000           -0.3712035             -10.1010 (HOMO)
        55                         -0.2169708              -5.9041 (LUMO)
        56                         -0.2060570              -5.6071
        57                         -0.0857001              -2.3320
        58                          0.0149345               0.4064
        59                          0.0352072               0.9580
       ...                                ...                  ...
       104                          0.6620388              18.0150
      -------------------------------------------------------------
                  HL-Gap            0.1542327 Eh            4.1969 eV
             Fermi-level           -0.2940871 Eh           -8.0025 eV

 SCC (total)                   0 d,  0 h,  0 min,  0.044 sec
 SCC setup                      ...        0 min,  0.000 sec (  0.709%)
 Dispersion                     ...        0 min,  0.001 sec (  1.234%)
 classical contributions        ...        0 min,  0.000 sec (  0.354%)
 integral evaluation            ...        0 min,  0.010 sec ( 23.753%)
 iterations                     ...        0 min,  0.015 sec ( 35.038%)
 molecular gradient             ...        0 min,  0.016 sec ( 37.305%)
 printout                       ...        0 min,  0.001 sec (  1.560%)

         :::::::::::::::::::::::::::::::::::::::::::::::::::::
         ::                     SUMMARY                     ::
         :::::::::::::::::::::::::::::::::::::::::::::::::::::
         :: total energy             -58.975774922850 Eh    ::
         :: gradient norm              0.000940500086 Eh/a0 ::
         :: HOMO-LUMO gap              4.196885870219 eV    ::
         ::.................................................::
         :: SCC energy               -59.801402139211 Eh    ::
         :: -> isotropic ES            0.049974098607 Eh    ::
         :: -> anisotropic ES          0.010673596426 Eh    ::
         :: -> anisotropic XC          0.021069772031 Eh    ::
         :: -> dispersion             -0.047782962537 Eh    ::
         :: repulsion energy           0.825627216361 Eh    ::
         :: add. restraining           0.000000000000 Eh    ::
         :: total charge              -0.000000000000 e     ::
         :::::::::::::::::::::::::::::::::::::::::::::::::::::

           -------------------------------------------------
          |                Property Printout                |
           -------------------------------------------------

    * Orbital Energies and Occupations

         #    Occupation            Energy/Eh            Energy/eV
      -------------------------------------------------------------
         1        2.0000           -0.7049967             -19.1839
       ...           ...                  ...                  ...
        42        2.0000           -0.4451255             -12.1125
        43        2.0000           -0.4425359             -12.0420
        44        2.0000           -0.4371816             -11.8963
        45        2.0000           -0.4344012             -11.8207
        46        2.0000           -0.4291029             -11.6765
        47        2.0000           -0.4227272             -11.5030
        48        2.0000           -0.4216275             -11.4731
        49        2.0000           -0.4173335             -11.3562
        50        2.0000           -0.4100259             -11.1574
        51        2.0000           -0.3992700             -10.8647
        52        2.0000           -0.3928545             -10.6901
        53        2.0000           -0.3911095             -10.6426
        54        2.0000           -0.3712035             -10.1010 (HOMO)
        55                         -0.2169708              -5.9041 (LUMO)
        56                         -0.2060570              -5.6071
        57                         -0.0857001              -2.3320
        58                          0.0149345               0.4064
        59                          0.0352072               0.9580
        60                          0.0428069               1.1648
        61                          0.0581144               1.5814
        62                          0.0669535               1.8219
        63                          0.0717331               1.9520
        64                          0.0808070               2.1989
        65                          0.0881124               2.3977
       ...                                ...                  ...
       104                          0.6620388              18.0150
      -------------------------------------------------------------
                  HL-Gap            0.1542327 Eh            4.1969 eV
             Fermi-level           -0.2940871 Eh           -8.0025 eV

     #   Z          covCN         q      C6AA      α(0)
     1   6          3.757    -0.105    22.568     6.773
     2   6          3.926     0.000    20.511     6.436
     3   6          3.809    -0.060    21.656     6.624
     4   6          3.804    -0.059    21.629     6.621
     5   6          3.864    -0.024    20.952     6.509
     6   6          3.862    -0.021    20.916     6.504
     7   6          3.809    -0.059    21.622     6.619
     8   6          3.813    -0.059    21.627     6.619
     9   6          2.974     0.005    27.899     8.664
    10   6          2.926    -0.083    30.089     8.996
    11   6          2.845     0.140    24.939     8.184
    12   8          1.659    -0.397    20.783     6.154
    13   6          2.918    -0.060    29.497     8.906
    14   6          2.926    -0.042    29.055     8.840
    15   6          2.969    -0.009    28.233     8.716
    16   6          3.903    -0.029    21.042     6.520
    17   6          3.818    -0.062    21.681     6.627
    18   6          3.819    -0.075    21.911     6.662
    19   6          3.757     0.106    18.881     6.195
    20   8          1.656    -0.444    21.720     6.291
    21   1          0.925     0.041     2.438     2.442
    22   1          0.925     0.036     2.499     2.472
    23   1          0.925     0.033     2.544     2.494
    24   1          0.924     0.029     2.596     2.519
    25   1          0.924     0.037     2.490     2.468
    26   1          0.924     0.034     2.528     2.486
    27   1          0.924     0.034     2.532     2.488
    28   1          0.923     0.036     2.502     2.474
    29   1          0.924     0.035     2.511     2.478
    30   1          0.924     0.031     2.575     2.510
    31   1          0.924     0.031     2.571     2.508
    32   1          0.924     0.039     2.464     2.455
    33   1          0.924     0.037     2.489     2.467
    34   1          0.925     0.021     2.722     2.580
    35   1          0.805     0.296     0.732     1.344
    36   1          0.926     0.047     2.363     2.404
    37   1          0.926     0.037     2.495     2.470
    38   1          0.924     0.028     2.616     2.529
    39   1          0.925     0.030     2.588     2.516
    40   1          0.924     0.032     2.553     2.499
    41   1          0.925     0.035     2.520     2.483
    42   1          0.924     0.032     2.556     2.500
    43   1          0.924     0.035     2.514     2.480
    44   1          0.805     0.291     0.749     1.359

 Mol. C6AA /au·bohr⁶  :      17652.434195
 Mol. C8AA /au·bohr⁸  :     405498.546273
 Mol. α(0) /au        :        200.886567


Wiberg/Mayer (AO) data.
largest (>0.10) Wiberg bond orders for each atom

 ---------------------------------------------------------------------------
     #   Z sym  total        # sym  WBO       # sym  WBO       # sym  WBO
 ---------------------------------------------------------------------------
     1   6      3.997 --     2      1.000    23      0.982    22      0.982
                            21      0.977
     2   6      3.990 --     1      1.000     3      0.991    16      0.969
                            19      0.955
     3   6      3.996 --     4      1.004     2      0.991    24      0.975
                            25      0.975
     4   6      3.996 --     3      1.004     5      0.992    27      0.975
                            26      0.971
     5   6      3.994 --    15      0.996     4      0.992     6      0.980
                            28      0.949
     6   6      3.995 --     7      0.996    16      0.990     5      0.980
                            29      0.961
     7   6      3.997 --     8      1.007     6      0.996    31      0.977
                            30      0.975
     8   6      3.998 --     9      1.010     7      1.007    33      0.968
                            32      0.961
     9   6      3.988 --    10      1.411    15      1.391     8      1.010
                            13      0.105
    10   6      3.983 --     9      1.411    11      1.387    34      0.965
                            14      0.103
    11   6      3.937 --    10      1.387    13      1.356    12      1.064
    12   8      2.111 --    11      1.064    35      0.891
    13   6      3.987 --    14      1.463    11      1.356    36      0.968
                             9      0.105
    14   6      3.991 --    13      1.463    15      1.401    37      0.964
                            10      0.103
    15   6      3.986 --    14      1.401     9      1.391     5      0.996
    16   6      3.992 --    17      0.994     6      0.990     2      0.969
                            38      0.964
    17   6      3.997 --    18      1.002    16      0.994    39      0.981
                            40      0.979
    18   6      3.996 --    17      1.002    41      0.983    42      0.979
                            19      0.976
    19   6      3.953 --    20      1.004    18      0.976    43      0.964
                             2      0.955
    20   8      1.977 --    19      1.004    44      0.892
    21   1      0.998 --     1      0.977
    22   1      0.999 --     1      0.982
    23   1      0.999 --     1      0.982
    24   1      0.999 --     3      0.975
    25   1      0.998 --     3      0.975
    26   1      0.998 --     4      0.971
    27   1      0.999 --     4      0.975
    28   1      0.998 --     5      0.949
    29   1      0.999 --     6      0.961
    30   1      0.998 --     7      0.975
    31   1      0.999 --     7      0.977
    32   1      0.998 --     8      0.961
    33   1      0.998 --     8      0.968
    34   1      0.999 --    10      0.965
    35   1      0.912 --    12      0.891
    36   1      0.997 --    13      0.968
    37   1      0.998 --    14      0.964
    38   1      0.999 --    16      0.964
    39   1      0.999 --    17      0.981
    40   1      0.999 --    17      0.979
    41   1      0.999 --    18      0.983
    42   1      0.999 --    18      0.979
    43   1      0.999 --    19      0.964
    44   1      0.915 --    20      0.892
 ---------------------------------------------------------------------------

Topologies differ in total number of bonds
Writing topology from bond orders to xtbtopo.mol

molecular dipole:
                 x           y           z       tot (Debye)
 q only:        0.100      -0.737      -0.419
   full:        0.190      -1.092      -0.602       3.206
molecular quadrupole (traceless):
                xx          xy          yy          xz          yz          zz
 q only:       -9.827      -2.888       4.706       3.482       0.152       5.120
  q+dip:      -13.437      -4.030       6.129       3.957       1.252       7.308
   full:      -13.018      -4.566       5.224       4.567       0.509       7.794

           -------------------------------------------------
          |                Geometry Summary                 |
           -------------------------------------------------

      molecular mass/u    :      272.3826340
   center of mass at/Å    :       -0.0653113      -0.0202147       0.0082017
  moments of inertia/u·Å² :        0.5352662E+03   0.2853404E+04   0.3207216E+04
rotational constants/cm⁻¹ :        0.3149392E-01   0.5907903E-02   0.5256157E-02

 * 43 selected distances

     #   Z          #   Z                                           value/Å
     1   6          2   6                                         1.5321369
     2   6          3   6                                         1.5263030
     3   6          4   6                                         1.5326070
     4   6          5   6                                         1.5363536
     5   6          6   6                                         1.5383481
     6   6          7   6                                         1.5249658
     7   6          8   6                                         1.5224659
     9   6         10   6                                         1.3897973
    10   6         11   6                                         1.3848488
    11   6         12   8                                         1.3627680
    11   6         13   6                                         1.3892091
    13   6         14   6                                         1.3791478
     9   6         15   6                                         1.3949838
    14   6         15   6                                         1.3924683
     2   6         16   6                                         1.5361590
     6   6         16   6                                         1.5219940
    16   6         17   6                                         1.5296889
    17   6         18   6                                         1.5402401 (max)
    19   6         20   8                                         1.4007073
     1   6         21   1                                         1.0848840
     1   6         22   1                                         1.0893449
     1   6         23   1                                         1.0870923
     3   6         24   1                                         1.0929290
     3   6         25   1                                         1.0917052
     4   6         26   1                                         1.0902394
     4   6         27   1                                         1.0910315
     5   6         28   1                                         1.1001402
     6   6         29   1                                         1.0937913
     7   6         30   1                                         1.0909787
     7   6         31   1                                         1.0920715
     8   6         32   1                                         1.0957028
     8   6         33   1                                         1.0929199
    10   6         34   1                                         1.0837417
    12   8         35   1                                         0.9645939
    13   6         36   1                                         1.0780362
    14   6         37   1                                         1.0780892
    16   6         38   1                                         1.0975319
    17   6         39   1                                         1.0889162
    17   6         40   1                                         1.0904414
    18   6         41   1                                         1.0886164
    18   6         42   1                                         1.0914987
    19   6         43   1                                         1.0947482
    20   8         44   1                                         0.9634791 (min)

 * 4 distinct bonds (by element types)

   Z      Z             #   av. dist./Å        max./Å        min./Å
   1 H    6 C          22     1.0902023     1.1001402     1.0780362
   6 C    6 C          17     1.4806893     1.5402401     1.3791478
   1 H    8 O           2     0.9640365     0.9645939     0.9634791
   6 C    8 O           2     1.3817376     1.4007073     1.3627680
Note: The following floating-point exceptions are signalling: IEEE_UNDERFLOW_FLAG
normal termination of xtb


optimized geometry written to: xtbopt.xyz


           -------------------------------------------------
          | TOTAL ENERGY              -58.975774922850 Eh   |
          | GRADIENT NORM               0.000940500086 Eh/α |
          | HOMO-LUMO GAP               4.196885870219 eV   |
           -------------------------------------------------

------------------------------------------------------------------------
 * finished run on 2026/08/28 at 19:10:09.004     
------------------------------------------------------------------------
 total:
 * wall-time:     0 d,  0 h,  0 min,  0.918 sec
 *  cpu-time:     0 d,  0 h,  0 min,  0.867 sec
 * ratio c/w:     0.944 speedup
 SCF:
 * wall-time:     0 d,  0 h,  0 min,  0.113 sec
 *  cpu-time:     0 d,  0 h,  0 min,  0.088 sec
 * ratio c/w:     0.778 speedup
 ANC optimizer:
 * wall-time:     0 d,  0 h,  0 min,  0.789 sec
 *  cpu-time:     0 d,  0 h,  0 min,  0.764 sec
 * ratio c/w:     0.968 speedup

