      -----------------------------------------------------------      
     |                   =====================                   |     
     |                           x T B                           |     
     |                   =====================                   |     
     |                         S. Grimme                         |     
     |          Mulliken Center for Theoretical Chemistry        |     
     |                    University of Bonn                     |     
      -----------------------------------------------------------      

   * xtb version 6.7.1 (unknown) compiled by 'root@buildkitsandbox' on 2026-08-28

   xtb is free software: you can redistribute it and/or modify it under
   the terms of the GNU Lesser General Public License as published by
   the Free Software Foundation, either version 3 of the License, or
   (at your option) any later version.
   
   xtb is distributed in the hope that it will be useful,
   but WITHOUT ANY WARRANTY; without even the implied warranty of
   MERCHANTABILITY or FITNESS FOR A PARTICULAR PURPOSE.  See the
   GNU Lesser General Public License for more details.
   
   Cite this work as:
   * C. Bannwarth, E. Caldeweyher, S. Ehlert, A. Hansen, P. Pracht,
     J. Seibert, S. Spicher, S. Grimme, WIREs Comput. Mol. Sci., 2020, 11,
     e01493. DOI: 10.1002/wcms.1493
   
   for GFN2-xTB:
   * C. Bannwarth, S. Ehlert and S. Grimme., J. Chem. Theory Comput., 2019,
     15, 1652-1671. DOI: 10.1021/acs.jctc.8b01176
   for GFN1-xTB:
   * S. Grimme, C. Bannwarth, P. Shushkov, J. Chem. Theory Comput., 2017,
     13, 1989-2009. DOI: 10.1021/acs.jctc.7b00118
   for GFN0-xTB:
   * P. Pracht, E. Caldeweyher, S. Ehlert, S. Grimme, ChemRxiv, 2019, preprint.
     DOI: 10.26434/chemrxiv.8326202.v1
   for GFN-FF:
   * S. Spicher and S. Grimme, Angew. Chem. Int. Ed., 2020, 59, 15665-15673.
     DOI: 10.1002/anie.202004239
   
   for ALPB and GBSA implicit solvation:
   * S. Ehlert, M. Stahn, S. Spicher, S. Grimme, J. Chem. Theory Comput.,
     2021, 17, 4250-4261. DOI: 10.1021/acs.jctc.1c00471
   
   for ddCOSMO and CPCM-X implicit solvation:
   * M. Stahn, S. Ehlert, S. Grimme, J. Phys. Chem. A,
     2023, XX, XXXX-XXXX. DOI: 10.1021/acs.jpca.3c04382
   
   for DFT-D4:
   * E. Caldeweyher, C. Bannwarth and S. Grimme, J. Chem. Phys., 2017,
     147, 034112. DOI: 10.1063/1.4993215
   * E. Caldeweyher, S. Ehlert, A. Hansen, H. Neugebauer, S. Spicher,
     C. Bannwarth and S. Grimme, J. Chem. Phys., 2019, 150, 154122.
     DOI: 10.1063/1.5090222
   * E. Caldeweyher, J.-M. Mewes, S. Ehlert and S. Grimme, Phys. Chem. Chem. Phys.
     2020, 22, 8499-8512. DOI: 10.1039/D0CP00502A
   
   for sTDA-xTB:
   * S. Grimme and C. Bannwarth, J. Chem. Phys., 2016, 145, 054103.
     DOI: 10.1063/1.4959605
   
   in the mass-spec context:
   * V. Asgeirsson, C. Bauer and S. Grimme, Chem. Sci., 2017, 8, 4879.
     DOI: 10.1039/c7sc00601b
   * J. Koopman and S. Grimme, ACS Omega 2019, 4, 12, 15120-15133.
     DOI: 10.1021/acsomega.9b02011
   
   for metadynamics refer to:
   * S. Grimme, J. Chem. Theory Comput., 2019, 155, 2847-2862
     DOI: 10.1021/acs.jctc.9b00143
   
   for SPH calculations refer to:
   * S. Spicher and S. Grimme, J. Chem. Theory Comput., 2021, 17, 1701-1714
     DOI: 10.1021/acs.jctc.0c01306
   
   for ONIOM refer to:
   * C. Plett, A. Katbashev, S. Ehlert, S. Grimme, M. Bursch,
     Phys. Chem. Chem. Phys., 2023, 25, 17860-17868. DOI: 10.1039/D3CP02178E
   
   for DIPRO refer to:
   * J. Kohn, N. Gildemeister, S. Grimme, D. Fazzi, A. Hansen,
     J. Chem. Phys. 159, 144106 (2023). DOI: 10.1063/5.0167484
   
   for PTB refer to:
   * S. Grimme, M. Mueller, A. Hansen, J. Chem. Phys., 2023, 158, 124111.
     DOI: 10.1063/5.0137838
   
   with help from (in alphabetical order)
   P. Atkinson, C. Bannwarth, F. Bohle, G. Brandenburg, E. Caldeweyher,
   M. Checinski, S. Dohm, S. Ehlert, S. Ehrlich, M. Friede, T. Froitzheim,
   I. Gerasimov, C. Hölzer, A. Katbashev, J. Kohn, J. Koopman, C. Lavigne,
   S. Lehtola, F. März, M. Müller, F. Musil, H. Neugebauer, J. Pisarek,
   C. Plett, P. Pracht, F. Pultar, J. Seibert, P. Shushkov, S. Spicher,
   M. Stahn, M. Steiner, T. Strunk, J. Stückrath, T. Rose, and J. Unsleber
   
 * started run on 2026/08/28 at 19:09:36.373     
   ID    Z sym.   atoms
    1    6 C      1, 2
    2    8 O      3
    3    1 H      4-9

           -------------------------------------------------
          |                Calculation Setup                |
           -------------------------------------------------

          program call               : xtb in.xyz --gfn 2 --grad --norestart
          hostname                   : 756d39058c4f
          coordinate file            : in.xyz
          random seed                :             817139730


           -------------------------------------------------
          |                 G F N 2 - x T B                 |
           -------------------------------------------------

        Reference                      10.1021/acs.jctc.8b01176
      * Hamiltonian:
        H0-scaling (s, p, d)           1.850000    2.230000    2.230000
        zeta-weighting                 0.500000
      * Dispersion:
        s8                             2.700000
        a1                             0.520000
        a2                             5.000000
        s9                             5.000000
      * Repulsion:
        kExp                           1.500000    1.000000
        rExp                           1.000000
      * Coulomb:
        alpha                          2.000000
        third order                    shell-resolved
        anisotropic                    true
        a3                             3.000000
        a5                             4.000000
        cn-shift                       1.200000
        cn-exp                         4.000000
        max-rad                        5.000000


          ...................................................
          :                      SETUP                      :
          :.................................................:
          :  # basis functions                  18          :
          :  # atomic orbitals                  18          :
          :  # shells                           12          :
          :  # electrons                        20          :
          :  max. iterations                   250          :
          :  Hamiltonian                  GFN2-xTB          :
          :  restarted?                      false          :
          :  GBSA solvation                  false          :
          :  PC potential                    false          :
          :  electronic temp.          300.0000000     K    :
          :  accuracy                    1.0000000          :
          :  -> integral cutoff          0.2500000E+02      :
          :  -> integral neglect         0.1000000E-07      :
          :  -> SCF convergence          0.1000000E-05 Eh   :
          :  -> wf. convergence          0.1000000E-03 e    :
          :  Broyden damping             0.4000000          :
          :  net charge                          0          :
          :  unpaired electrons                  0          :
          ...................................................

 iter      E             dE          RMSdq      gap      omega  full diag
   1    -11.4893794 -0.114894E+02  0.361E+00   12.82       0.0  T
   2    -11.5108325 -0.214530E-01  0.193E+00   12.43       1.0  T
   3    -11.5112516 -0.419121E-03  0.801E-01   12.51       1.0  T
   4    -11.5114043 -0.152680E-03  0.124E-01   12.50       1.0  T
   5    -11.5114182 -0.139488E-04  0.684E-02   12.52       1.0  T
   6    -11.5114192 -0.100362E-05  0.107E-02   12.53       3.1  T
   7    -11.5114193 -0.108823E-06  0.335E-03   12.53       9.9  T
   8    -11.5114193 -0.120115E-07  0.130E-03   12.53      25.6  T
   9    -11.5114193 -0.795232E-09  0.150E-04   12.53     222.5  T
  10    -11.5114193 -0.259686E-10  0.344E-05   12.53     969.2  T

   *** convergence criteria satisfied after 10 iterations ***

         #    Occupation            Energy/Eh            Energy/eV
      -------------------------------------------------------------
         1        2.0000           -0.6838276             -18.6079
       ...           ...                  ...                  ...
         4        2.0000           -0.5562064             -15.1351
         5        2.0000           -0.5279534             -14.3663
         6        2.0000           -0.5142971             -13.9947
         7        2.0000           -0.4791774             -13.0391
         8        2.0000           -0.4673501             -12.7172
         9        2.0000           -0.4417057             -12.0194
        10        2.0000           -0.4118104             -11.2059 (HOMO)
        11                          0.0485057               1.3199 (LUMO)
        12                          0.1174476               3.1959
        13                          0.1290050               3.5104
        14                          0.1566062               4.2615
        15                          0.1656572               4.5078
       ...                                ...                  ...
        18                          0.2668887               7.2624
      -------------------------------------------------------------
                  HL-Gap            0.4603161 Eh           12.5258 eV
             Fermi-level           -0.1816523 Eh           -4.9430 eV

 SCC (total)                   0 d,  0 h,  0 min,  0.007 sec
 SCC setup                      ...        0 min,  0.000 sec (  1.696%)
 Dispersion                     ...        0 min,  0.000 sec (  0.599%)
 classical contributions        ...        0 min,  0.000 sec (  0.149%)
 integral evaluation            ...        0 min,  0.001 sec (  8.108%)
 iterations                     ...        0 min,  0.004 sec ( 63.146%)
 molecular gradient             ...        0 min,  0.001 sec ( 18.534%)
 printout                       ...        0 min,  0.000 sec (  7.460%)

         :::::::::::::::::::::::::::::::::::::::::::::::::::::
         ::                     SUMMARY                     ::
         :::::::::::::::::::::::::::::::::::::::::::::::::::::
         :: total energy             -11.393349429834 Eh    ::
         :: gradient norm              0.019578012092 Eh/a0 ::
         :: HOMO-LUMO gap             12.525837363563 eV    ::
         ::.................................................::
         :: SCC energy               -11.511418828377 Eh    ::
         :: -> isotropic ES            0.026256261440 Eh    ::
         :: -> anisotropic ES          0.002471200422 Eh    ::
         :: -> anisotropic XC          0.002398153252 Eh    ::
         :: -> dispersion             -0.002783353118 Eh    ::
         :: repulsion energy           0.118069398543 Eh    ::
         :: add. restraining           0.000000000000 Eh    ::
         :: total charge              -0.000000000000 e     ::
         :::::::::::::::::::::::::::::::::::::::::::::::::::::

           -------------------------------------------------
          |                Property Printout                |
           -------------------------------------------------

    * Orbital Energies and Occupations

         #    Occupation            Energy/Eh            Energy/eV
      -------------------------------------------------------------
         1        2.0000           -0.6838276             -18.6079
         2        2.0000           -0.6255832             -17.0230
         3        2.0000           -0.5937040             -16.1555
         4        2.0000           -0.5562064             -15.1351
         5        2.0000           -0.5279534             -14.3663
         6        2.0000           -0.5142971             -13.9947
         7        2.0000           -0.4791774             -13.0391
         8        2.0000           -0.4673501             -12.7172
         9        2.0000           -0.4417057             -12.0194
        10        2.0000           -0.4118104             -11.2059 (HOMO)
        11                          0.0485057               1.3199 (LUMO)
        12                          0.1174476               3.1959
        13                          0.1290050               3.5104
normal termination of xtb
        14                          0.1566062               4.2615
        15                          0.1656572               4.5078
        16                          0.2029771               5.5233
        17                          0.2438662               6.6359
        18                          0.2668887               7.2624
      -------------------------------------------------------------
                  HL-Gap            0.4603161 Eh           12.5258 eV
             Fermi-level           -0.1816523 Eh           -4.9430 eV

     #   Z          covCN         q      C6AA      α(0)
     1   6          3.748    -0.114    22.754     6.804
     2   6          3.673     0.083    19.422     6.316
     3   8          1.653    -0.446    21.764     6.298
     4   1          0.924     0.038     2.472     2.459
     5   1          0.924     0.036     2.506     2.476
     6   1          0.924     0.050     2.316     2.380
     7   1          0.924     0.019     2.745     2.591
     8   1          0.924     0.048     2.347     2.396
     9   1          0.804     0.286     0.766     1.375

 Mol. C6AA /au·bohr⁶  :        507.269969
 Mol. C8AA /au·bohr⁸  :      10092.701373
 Mol. α(0) /au        :         33.092616


Wiberg/Mayer (AO) data.
largest (>0.10) Wiberg bond orders for each atom

 ---------------------------------------------------------------------------
     #   Z sym  total        # sym  WBO       # sym  WBO       # sym  WBO
 ---------------------------------------------------------------------------
     1   6      3.996 --     2      1.016     6      0.986     4      0.985
                             5      0.985
     2   6      3.958 --     1      1.016     3      0.994     8      0.974
                             7      0.973
     3   8      1.951 --     2      0.994     9      0.904
     4   1      0.999 --     1      0.985
     5   1      0.999 --     1      0.985
     6   1      0.997 --     1      0.986
     7   1      1.000 --     2      0.973
     8   1      0.998 --     2      0.974
     9   1      0.918 --     3      0.904
 ---------------------------------------------------------------------------

Topologies differ in total number of bonds
Writing topology from bond orders to xtbtopo.mol

molecular dipole:
                 x           y           z       tot (Debye)
 q only:       -0.399       0.080      -0.416
   full:       -0.516       0.169      -0.585       2.030
molecular quadrupole (traceless):
                xx          xy          yy          xz          yz          zz
 q only:       -4.244      -0.256       4.406      -4.124      -0.545      -0.163
  q+dip:       -5.974      -0.396       6.110      -6.207      -1.573      -0.136
   full:       -5.913      -0.241       6.196      -5.915      -1.206      -0.282


           -------------------------------------------------
          | TOTAL ENERGY              -11.393349429834 Eh   |
          | GRADIENT NORM               0.019578012092 Eh/α |
          | HOMO-LUMO GAP              12.525837363563 eV   |
           -------------------------------------------------

------------------------------------------------------------------------
 * finished run on 2026/08/28 at 19:09:36.418     
------------------------------------------------------------------------
 total:
 * wall-time:     0 d,  0 h,  0 min,  0.045 sec
 *  cpu-time:     0 d,  0 h,  0 min,  0.032 sec
 * ratio c/w:     0.701 speedup
 SCF:
 * wall-time:     0 d,  0 h,  0 min,  0.007 sec
 *  cpu-time:     0 d,  0 h,  0 min,  0.006 sec
 * ratio c/w:     0.953 speedup

