      -----------------------------------------------------------      
     |                   =====================                   |     
     |                           x T B                           |     
     |                   =====================                   |     
     |                         S. Grimme                         |     
     |          Mulliken Center for Theoretical Chemistry        |     
     |                    University of Bonn                     |     
      -----------------------------------------------------------      

   * xtb version 6.7.1 (unknown) compiled by 'root@buildkitsandbox' on 2026-08-28

   xtb is free software: you can redistribute it and/or modify it under
   the terms of the GNU Lesser General Public License as published by
   the Free Software Foundation, either version 3 of the License, or
   (at your option) any later version.
   
   xtb is distributed in the hope that it will be useful,
   but WITHOUT ANY WARRANTY; without even the implied warranty of
   MERCHANTABILITY or FITNESS FOR A PARTICULAR PURPOSE.  See the
   GNU Lesser General Public License for more details.
   
   Cite this work as:
   * C. Bannwarth, E. Caldeweyher, S. Ehlert, A. Hansen, P. Pracht,
     J. Seibert, S. Spicher, S. Grimme, WIREs Comput. Mol. Sci., 2020, 11,
     e01493. DOI: 10.1002/wcms.1493
   
   for GFN2-xTB:
   * C. Bannwarth, S. Ehlert and S. Grimme., J. Chem. Theory Comput., 2019,
     15, 1652-1671. DOI: 10.1021/acs.jctc.8b01176
   for GFN1-xTB:
   * S. Grimme, C. Bannwarth, P. Shushkov, J. Chem. Theory Comput., 2017,
     13, 1989-2009. DOI: 10.1021/acs.jctc.7b00118
   for GFN0-xTB:
   * P. Pracht, E. Caldeweyher, S. Ehlert, S. Grimme, ChemRxiv, 2019, preprint.
     DOI: 10.26434/chemrxiv.8326202.v1
   for GFN-FF:
   * S. Spicher and S. Grimme, Angew. Chem. Int. Ed., 2020, 59, 15665-15673.
     DOI: 10.1002/anie.202004239
   
   for ALPB and GBSA implicit solvation:
   * S. Ehlert, M. Stahn, S. Spicher, S. Grimme, J. Chem. Theory Comput.,
     2021, 17, 4250-4261. DOI: 10.1021/acs.jctc.1c00471
   
   for ddCOSMO and CPCM-X implicit solvation:
   * M. Stahn, S. Ehlert, S. Grimme, J. Phys. Chem. A,
     2023, XX, XXXX-XXXX. DOI: 10.1021/acs.jpca.3c04382
   
   for DFT-D4:
   * E. Caldeweyher, C. Bannwarth and S. Grimme, J. Chem. Phys., 2017,
     147, 034112. DOI: 10.1063/1.4993215
   * E. Caldeweyher, S. Ehlert, A. Hansen, H. Neugebauer, S. Spicher,
     C. Bannwarth and S. Grimme, J. Chem. Phys., 2019, 150, 154122.
     DOI: 10.1063/1.5090222
   * E. Caldeweyher, J.-M. Mewes, S. Ehlert and S. Grimme, Phys. Chem. Chem. Phys.
     2020, 22, 8499-8512. DOI: 10.1039/D0CP00502A
   
   for sTDA-xTB:
   * S. Grimme and C. Bannwarth, J. Chem. Phys., 2016, 145, 054103.
     DOI: 10.1063/1.4959605
   
   in the mass-spec context:
   * V. Asgeirsson, C. Bauer and S. Grimme, Chem. Sci., 2017, 8, 4879.
     DOI: 10.1039/c7sc00601b
   * J. Koopman and S. Grimme, ACS Omega 2019, 4, 12, 15120-15133.
     DOI: 10.1021/acsomega.9b02011
   
   for metadynamics refer to:
   * S. Grimme, J. Chem. Theory Comput., 2019, 155, 2847-2862
     DOI: 10.1021/acs.jctc.9b00143
   
   for SPH calculations refer to:
   * S. Spicher and S. Grimme, J. Chem. Theory Comput., 2021, 17, 1701-1714
     DOI: 10.1021/acs.jctc.0c01306
   
   for ONIOM refer to:
   * C. Plett, A. Katbashev, S. Ehlert, S. Grimme, M. Bursch,
     Phys. Chem. Chem. Phys., 2023, 25, 17860-17868. DOI: 10.1039/D3CP02178E
   
   for DIPRO refer to:
   * J. Kohn, N. Gildemeister, S. Grimme, D. Fazzi, A. Hansen,
     J. Chem. Phys. 159, 144106 (2023). DOI: 10.1063/5.0167484
   
   for PTB refer to:
   * S. Grimme, M. Mueller, A. Hansen, J. Chem. Phys., 2023, 158, 124111.
     DOI: 10.1063/5.0137838
   
   with help from (in alphabetical order)
   P. Atkinson, C. Bannwarth, F. Bohle, G. Brandenburg, E. Caldeweyher,
   M. Checinski, S. Dohm, S. Ehlert, S. Ehrlich, M. Friede, T. Froitzheim,
   I. Gerasimov, C. Hölzer, A. Katbashev, J. Kohn, J. Koopman, C. Lavigne,
   S. Lehtola, F. März, M. Müller, F. Musil, H. Neugebauer, J. Pisarek,
   C. Plett, P. Pracht, F. Pultar, J. Seibert, P. Shushkov, S. Spicher,
   M. Stahn, M. Steiner, T. Strunk, J. Stückrath, T. Rose, and J. Unsleber
   
 * started run on 2026/08/28 at 19:11:55.388     
   ID    Z sym.   atoms
    1    6 C      1, 2
    2    8 O      3
    3    1 H      4-9

           -------------------------------------------------
          |                Calculation Setup                |
           -------------------------------------------------

          program call               : xtb opt.xyz --gfn 2 --hess --norestart
          hostname                   : 756d39058c4f
          coordinate file            : opt.xyz
          random seed                :            1772632319


           -------------------------------------------------
          |                 G F N 2 - x T B                 |
           -------------------------------------------------

        Reference                      10.1021/acs.jctc.8b01176
      * Hamiltonian:
        H0-scaling (s, p, d)           1.850000    2.230000    2.230000
        zeta-weighting                 0.500000
      * Dispersion:
        s8                             2.700000
        a1                             0.520000
        a2                             5.000000
        s9                             5.000000
      * Repulsion:
        kExp                           1.500000    1.000000
        rExp                           1.000000
      * Coulomb:
        alpha                          2.000000
        third order                    shell-resolved
        anisotropic                    true
        a3                             3.000000
        a5                             4.000000
        cn-shift                       1.200000
        cn-exp                         4.000000
        max-rad                        5.000000


          ...................................................
          :                      SETUP                      :
          :.................................................:
          :  # basis functions                  18          :
          :  # atomic orbitals                  18          :
          :  # shells                           12          :
          :  # electrons                        20          :
          :  max. iterations                   250          :
          :  Hamiltonian                  GFN2-xTB          :
          :  restarted?                      false          :
          :  GBSA solvation                  false          :
          :  PC potential                    false          :
          :  electronic temp.          300.0000000     K    :
          :  accuracy                    1.0000000          :
          :  -> integral cutoff          0.2500000E+02      :
          :  -> integral neglect         0.1000000E-07      :
          :  -> SCF convergence          0.1000000E-05 Eh   :
          :  -> wf. convergence          0.1000000E-03 e    :
          :  Broyden damping             0.4000000          :
          :  net charge                          0          :
          :  unpaired electrons                  0          :
          ...................................................

 iter      E             dE          RMSdq      gap      omega  full diag
   1    -11.4942704 -0.114943E+02  0.360E+00   13.18       0.0  T
   2    -11.5147517 -0.204812E-01  0.194E+00   12.81       1.0  T
   3    -11.5151553 -0.403695E-03  0.790E-01   12.88       1.0  T
   4    -11.5153083 -0.152976E-03  0.122E-01   12.87       1.0  T
   5    -11.5153227 -0.144049E-04  0.677E-02   12.89       1.0  T
   6    -11.5153236 -0.911010E-06  0.963E-03   12.89       3.5  T
   7    -11.5153237 -0.749940E-07  0.311E-03   12.89      10.7  T
   8    -11.5153237 -0.109945E-07  0.138E-03   12.89      24.2  T
   9    -11.5153237 -0.106019E-08  0.130E-04   12.89     255.9  T
  10    -11.5153237 -0.206324E-10  0.329E-05   12.89    1013.2  T

   *** convergence criteria satisfied after 10 iterations ***

         #    Occupation            Energy/Eh            Energy/eV
      -------------------------------------------------------------
         1        2.0000           -0.6859633             -18.6660
       ...           ...                  ...                  ...
         4        2.0000           -0.5551694             -15.1069
         5        2.0000           -0.5276743             -14.3587
         6        2.0000           -0.5159696             -14.0402
         7        2.0000           -0.4793170             -13.0429
         8        2.0000           -0.4676050             -12.7242
         9        2.0000           -0.4423155             -12.0360
        10        2.0000           -0.4112371             -11.1903 (HOMO)
        11                          0.0625814               1.7029 (LUMO)
        12                          0.1113219               3.0292
        13                          0.1351965               3.6789
        14                          0.1592329               4.3329
        15                          0.1693730               4.6089
       ...                                ...                  ...
        18                          0.2754489               7.4953
      -------------------------------------------------------------
                  HL-Gap            0.4738185 Eh           12.8933 eV
             Fermi-level           -0.1743279 Eh           -4.7437 eV

 SCC (total)                   0 d,  0 h,  0 min,  0.013 sec
 SCC setup                      ...        0 min,  0.000 sec (  1.220%)
 Dispersion                     ...        0 min,  0.000 sec (  0.231%)
 classical contributions        ...        0 min,  0.000 sec (  0.067%)
 integral evaluation            ...        0 min,  0.001 sec (  4.047%)
 iterations                     ...        0 min,  0.001 sec (  8.925%)
 molecular gradient             ...        0 min,  0.000 sec (  3.621%)
 printout                       ...        0 min,  0.011 sec ( 81.772%)

         :::::::::::::::::::::::::::::::::::::::::::::::::::::
         ::                     SUMMARY                     ::
         :::::::::::::::::::::::::::::::::::::::::::::::::::::
         :: total energy             -11.394338665286 Eh    ::
         :: gradient norm              0.000496173821 Eh/a0 ::
         :: HOMO-LUMO gap             12.893258905268 eV    ::
         ::.................................................::
         :: SCC energy               -11.515323208218 Eh    ::
         :: -> isotropic ES            0.025773432196 Eh    ::
         :: -> anisotropic ES          0.002367291733 Eh    ::
         :: -> anisotropic XC          0.002288373533 Eh    ::
         :: -> dispersion             -0.002779868828 Eh    ::
         :: repulsion energy           0.120984542932 Eh    ::
         :: add. restraining           0.000000000000 Eh    ::
         :: total charge              -0.000000000000 e     ::
         :::::::::::::::::::::::::::::::::::::::::::::::::::::

           ------------------------------------------------- 
          |                Numerical Hessian                |
           ------------------------------------------------- 
step length          :   0.00500
SCC accuracy         :   0.30000
Hessian scale factor :   1.00000
frozen atoms in %    :   0.00000    0
RMS gradient         :   0.00050
estimated CPU  time      0.00 min
estimated wall time      0.00 min

writing file <hessian>, containing the non-mass-weighted Hessian matrix in atomic units (Eₕ/Bohr²).

 projected vibrational frequencies (cm⁻¹)
eigval :       -0.00    -0.00     0.00     0.00     0.00     0.00
eigval :      226.10   343.20   420.74   831.54   932.23  1045.90
eigval :     1089.67  1130.60  1235.76  1315.06  1349.71  1404.69
eigval :     1482.94  1489.67  1497.07  2866.29  2983.10  3018.67
eigval :     3043.94  3048.83  3540.17
           -------------------------------------------------
          |                Property Printout                |
           -------------------------------------------------

    * Orbital Energies and Occupations

         #    Occupation            Energy/Eh            Energy/eV
      -------------------------------------------------------------
         1        2.0000           -0.6859631             -18.6660
         2        2.0000           -0.6257885             -17.0286
         3        2.0000           -0.5958911             -16.2150
         4        2.0000           -0.5551694             -15.1069
         5        2.0000           -0.5276744             -14.3587
         6        2.0000           -0.5159696             -14.0402
         7        2.0000           -0.4793170             -13.0429
         8        2.0000           -0.4676051             -12.7242
         9        2.0000           -0.4423156             -12.0360
        10        2.0000           -0.4112369             -11.1903 (HOMO)
        11                          0.0625814               1.7029 (LUMO)
        12                          0.1113217               3.0292
        13                          0.1351964               3.6789
        14                          0.1592326               4.3329
        15                          0.1693728               4.6089
        16                          0.2141686               5.8278
        17                          0.2475595               6.7364
        18                          0.2754487               7.4953
      -------------------------------------------------------------
                  HL-Gap            0.4738183 Eh           12.8933 eV
             Fermi-level           -0.1743278 Eh           -4.7437 eV

     #   Z          covCN         q      C6AA      α(0)
     1   6          3.750    -0.118    22.830     6.814
     2   6          3.673     0.084    19.411     6.314
     3   8          1.655    -0.443    21.700     6.288
     4   1          0.925     0.040     2.444     2.445
     5   1          0.925     0.037     2.493     2.469
     6   1          0.925     0.050     2.316     2.380
     7   1          0.923     0.016     2.791     2.613
     8   1          0.924     0.048     2.346     2.395
     9   1          0.805     0.286     0.765     1.374

 Mol. C6AA /au·bohr⁶  :        507.282504
 Mol. C8AA /au·bohr⁸  :      10094.058949
 Mol. α(0) /au        :         33.093223


Wiberg/Mayer (AO) data.
largest (>0.10) Wiberg bond orders for each atom

 ---------------------------------------------------------------------------
     #   Z sym  total        # sym  WBO       # sym  WBO       # sym  WBO
 ---------------------------------------------------------------------------
     1   6      3.996 --     2      1.011     6      0.987     5      0.986
                             4      0.986
     2   6      3.957 --     1      1.011     3      1.000     8      0.974
                             7      0.971
     3   8      1.959 --     2      1.000     9      0.903
     4   1      0.998 --     1      0.986
     5   1      0.999 --     1      0.986
     6   1      0.997 --     1      0.987
     7   1      1.000 --     2      0.971
     8   1      0.998 --     2      0.974
     9   1      0.918 --     3      0.903
 ---------------------------------------------------------------------------

Topologies differ in total number of bonds
Writing topology from bond orders to xtbtopo.mol

molecular dipole:
                 x           y           z       tot (Debye)
 q only:       -0.423       0.093      -0.364
   full:       -0.555       0.193      -0.520       1.994
molecular quadrupole (traceless):
                xx          xy          yy          xz          yz          zz
 q only:       -4.614      -0.177       4.494      -3.755      -0.286       0.119
  q+dip:       -6.583      -0.264       6.229      -5.727      -1.234       0.354
   full:       -6.505      -0.109       6.352      -5.465      -0.845       0.153

           -------------------------------------------------
          |               Frequency Printout                |
           -------------------------------------------------
 projected vibrational frequencies (cm⁻¹)
eigval :       -0.00    -0.00     0.00     0.00     0.00     0.00
eigval :      226.10   343.20   420.74   831.54   932.23  1045.90
eigval :     1089.67  1130.60  1235.76  1315.06  1349.71  1404.69
Refinement of some symmetry elements was terminated before convergence was reached.
Some symmetry elements may remain unidentified.
Molecule has no symmetry elements
It seems to be the C1 point group
eigval :     1482.94  1489.67  1497.07  2866.29  2983.10  3018.67
eigval :     3043.94  3048.83  3540.17
 reduced masses (amu)
    1:      2.29    2:      2.31    3:      4.26    4:      4.85    5:      5.19    6:      3.16
    7:      1.10    8:      1.13    9:      2.75   10:      1.09   11:      2.18   12:      1.36
   13:      2.63   14:      2.28   15:      1.30   16:      1.18   17:      1.27   18:      1.24
   19:      1.08   20:      1.05   21:      1.06   22:      1.07   23:      1.07   24:      1.07
   25:      1.07   26:      1.07   27:      1.07
 IR intensities (km·mol⁻¹)
    1:      3.28    2:      4.09    3:      0.26    4:      0.35    5:      0.88    6:      1.04
    7:      2.44    8:    140.16    9:     31.70   10:      7.84   11:      7.79   12:     47.63
   13:     51.73   14:     38.38   15:     12.49   16:     17.72   17:     63.09   18:      8.52
   19:      1.03   20:      3.06   21:      1.90   22:     80.38   23:     17.72   24:     49.36
   25:     25.18   26:     28.71   27:      6.14
 Raman intensities (Ä⁴*amu⁻¹)
    1:      0.00    2:      0.00    3:      0.00    4:      0.00    5:      0.00    6:      0.00
    7:      0.00    8:      0.00    9:      0.00   10:      0.00   11:      0.00   12:      0.00
   13:      0.00   14:      0.00   15:      0.00   16:      0.00   17:      0.00   18:      0.00
   19:      0.00   20:      0.00   21:      0.00   22:      0.00   23:      0.00   24:      0.00
   25:      0.00   26:      0.00   27:      0.00
 output can be read by thermo (or use thermo option).
 writing <g98.out> molden fake output.
 recommended (thermochemical) frequency scaling factor: 1.0
           -------------------------------------------------
          |             Thermodynamic Functions             |
           -------------------------------------------------

c1  symmetry found (for desy threshold:  0.10E+00) used in thermo

          ...................................................
          :                      SETUP                      :
          :.................................................:
          :  # frequencies                          21      :
          :  # imaginary freq.                       0      :
          :  linear?                             false      :
          :  only rotor calc.                    false      :
          :  symmetry                               c1      :
          :  rotational number                       1      :
          :  scaling factor                  1.0000000      :
          :  rotor cutoff                   50.0000000 cm⁻¹ :
          :  imag. cutoff                  -20.0000000 cm⁻¹ :
          :.................................................:

    mode    ω/cm⁻¹     T·S(HO)/kcal·mol⁻¹    T·S(FR)/kcal·mol⁻¹   T·S(vib)
   ------------------------------------------------------------------------
       1    226.10    -0.56937 ( 99.76%)    -0.60903 (  0.24%)    -0.56946
   ------------------------------------------------------------------------

   temp. (K)  partition function   enthalpy   heat capacity  entropy
                                   cal/mol     cal/K/mol   cal/K/mol   J/K/mol
 298.15  VIB   2.26                  899.145      7.531      4.639
         ROT  0.169E+05              888.727      2.981     22.331
         INT  0.383E+05             1787.872     10.512     26.970
         TR   0.957E+25             1481.212      4.968     37.408
         TOT                        3269.0848    15.4801    64.3774   269.3550

       T/K    H(0)-H(T)+PV         H(T)/Eh          T*S/Eh         G(T)/Eh
   ------------------------------------------------------------------------
    298.15    0.520962E-02    0.833413E-01    0.305878E-01    0.527536E-01
   ------------------------------------------------------------------------

         :::::::::::::::::::::::::::::::::::::::::::::::::::::
         ::                  THERMODYNAMIC                  ::
         :::::::::::::::::::::::::::::::::::::::::::::::::::::
         :: total free energy         -11.341585102224 Eh   ::
         ::.................................................::
normal termination of xtb
         :: total energy              -11.394338665289 Eh   ::
         :: zero point energy           0.078131715869 Eh   ::
         :: G(RRHO) w/o ZPVE           -0.025378152804 Eh   ::
         :: G(RRHO) contrib.            0.052753563065 Eh   ::
         :::::::::::::::::::::::::::::::::::::::::::::::::::::

           -------------------------------------------------
          | TOTAL ENERGY              -11.394338665289 Eh   |
          | TOTAL ENTHALPY            -11.310997331112 Eh   |
          | TOTAL FREE ENERGY         -11.341585102224 Eh   |
          | GRADIENT NORM               0.000495789593 Eh/α |
          | HOMO-LUMO GAP              12.893252607170 eV   |
           -------------------------------------------------

------------------------------------------------------------------------
 * finished run on 2026/08/28 at 19:11:55.602     
------------------------------------------------------------------------
 total:
 * wall-time:     0 d,  0 h,  0 min,  0.214 sec
 *  cpu-time:     0 d,  0 h,  0 min,  0.176 sec
 * ratio c/w:     0.822 speedup
 SCF:
 * wall-time:     0 d,  0 h,  0 min,  0.014 sec
 *  cpu-time:     0 d,  0 h,  0 min,  0.003 sec
 * ratio c/w:     0.199 speedup
 analytical hessian:
 * wall-time:     0 d,  0 h,  0 min,  0.188 sec
 *  cpu-time:     0 d,  0 h,  0 min,  0.165 sec
 * ratio c/w:     0.879 speedup

