      -----------------------------------------------------------      
     |                   =====================                   |     
     |                           x T B                           |     
     |                   =====================                   |     
     |                         S. Grimme                         |     
     |          Mulliken Center for Theoretical Chemistry        |     
     |                    University of Bonn                     |     
      -----------------------------------------------------------      

   * xtb version 6.7.1 (unknown) compiled by 'root@buildkitsandbox' on 2026-08-28

   xtb is free software: you can redistribute it and/or modify it under
   the terms of the GNU Lesser General Public License as published by
   the Free Software Foundation, either version 3 of the License, or
   (at your option) any later version.
   
   xtb is distributed in the hope that it will be useful,
   but WITHOUT ANY WARRANTY; without even the implied warranty of
   MERCHANTABILITY or FITNESS FOR A PARTICULAR PURPOSE.  See the
   GNU Lesser General Public License for more details.
   
   Cite this work as:
   * C. Bannwarth, E. Caldeweyher, S. Ehlert, A. Hansen, P. Pracht,
     J. Seibert, S. Spicher, S. Grimme, WIREs Comput. Mol. Sci., 2020, 11,
     e01493. DOI: 10.1002/wcms.1493
   
   for GFN2-xTB:
   * C. Bannwarth, S. Ehlert and S. Grimme., J. Chem. Theory Comput., 2019,
     15, 1652-1671. DOI: 10.1021/acs.jctc.8b01176
   for GFN1-xTB:
   * S. Grimme, C. Bannwarth, P. Shushkov, J. Chem. Theory Comput., 2017,
     13, 1989-2009. DOI: 10.1021/acs.jctc.7b00118
   for GFN0-xTB:
   * P. Pracht, E. Caldeweyher, S. Ehlert, S. Grimme, ChemRxiv, 2019, preprint.
     DOI: 10.26434/chemrxiv.8326202.v1
   for GFN-FF:
   * S. Spicher and S. Grimme, Angew. Chem. Int. Ed., 2020, 59, 15665-15673.
     DOI: 10.1002/anie.202004239
   
   for ALPB and GBSA implicit solvation:
   * S. Ehlert, M. Stahn, S. Spicher, S. Grimme, J. Chem. Theory Comput.,
     2021, 17, 4250-4261. DOI: 10.1021/acs.jctc.1c00471
   
   for ddCOSMO and CPCM-X implicit solvation:
   * M. Stahn, S. Ehlert, S. Grimme, J. Phys. Chem. A,
     2023, XX, XXXX-XXXX. DOI: 10.1021/acs.jpca.3c04382
   
   for DFT-D4:
   * E. Caldeweyher, C. Bannwarth and S. Grimme, J. Chem. Phys., 2017,
     147, 034112. DOI: 10.1063/1.4993215
   * E. Caldeweyher, S. Ehlert, A. Hansen, H. Neugebauer, S. Spicher,
     C. Bannwarth and S. Grimme, J. Chem. Phys., 2019, 150, 154122.
     DOI: 10.1063/1.5090222
   * E. Caldeweyher, J.-M. Mewes, S. Ehlert and S. Grimme, Phys. Chem. Chem. Phys.
     2020, 22, 8499-8512. DOI: 10.1039/D0CP00502A
   
   for sTDA-xTB:
   * S. Grimme and C. Bannwarth, J. Chem. Phys., 2016, 145, 054103.
     DOI: 10.1063/1.4959605
   
   in the mass-spec context:
   * V. Asgeirsson, C. Bauer and S. Grimme, Chem. Sci., 2017, 8, 4879.
     DOI: 10.1039/c7sc00601b
   * J. Koopman and S. Grimme, ACS Omega 2019, 4, 12, 15120-15133.
     DOI: 10.1021/acsomega.9b02011
   
   for metadynamics refer to:
   * S. Grimme, J. Chem. Theory Comput., 2019, 155, 2847-2862
     DOI: 10.1021/acs.jctc.9b00143
   
   for SPH calculations refer to:
   * S. Spicher and S. Grimme, J. Chem. Theory Comput., 2021, 17, 1701-1714
     DOI: 10.1021/acs.jctc.0c01306
   
   for ONIOM refer to:
   * C. Plett, A. Katbashev, S. Ehlert, S. Grimme, M. Bursch,
     Phys. Chem. Chem. Phys., 2023, 25, 17860-17868. DOI: 10.1039/D3CP02178E
   
   for DIPRO refer to:
   * J. Kohn, N. Gildemeister, S. Grimme, D. Fazzi, A. Hansen,
     J. Chem. Phys. 159, 144106 (2023). DOI: 10.1063/5.0167484
   
   for PTB refer to:
   * S. Grimme, M. Mueller, A. Hansen, J. Chem. Phys., 2023, 158, 124111.
     DOI: 10.1063/5.0137838
   
   with help from (in alphabetical order)
   P. Atkinson, C. Bannwarth, F. Bohle, G. Brandenburg, E. Caldeweyher,
   M. Checinski, S. Dohm, S. Ehlert, S. Ehrlich, M. Friede, T. Froitzheim,
   I. Gerasimov, C. Hölzer, A. Katbashev, J. Kohn, J. Koopman, C. Lavigne,
   S. Lehtola, F. März, M. Müller, F. Musil, H. Neugebauer, J. Pisarek,
   C. Plett, P. Pracht, F. Pultar, J. Seibert, P. Shushkov, S. Spicher,
   M. Stahn, M. Steiner, T. Strunk, J. Stückrath, T. Rose, and J. Unsleber
   
 * started run on 2026/08/28 at 19:09:39.535     
   ID    Z sym.   atoms
    1    6 C      1-6
    2    1 H      7-20

           -------------------------------------------------
          |                Calculation Setup                |
           -------------------------------------------------

          program call               : xtb in.xyz --gfn 2 --grad --norestart
          hostname                   : 756d39058c4f
          coordinate file            : in.xyz
          random seed                :             840191826


           -------------------------------------------------
          |                 G F N 2 - x T B                 |
           -------------------------------------------------

        Reference                      10.1021/acs.jctc.8b01176
      * Hamiltonian:
        H0-scaling (s, p, d)           1.850000    2.230000    2.230000
        zeta-weighting                 0.500000
      * Dispersion:
        s8                             2.700000
        a1                             0.520000
        a2                             5.000000
        s9                             5.000000
      * Repulsion:
        kExp                           1.500000    1.000000
        rExp                           1.000000
      * Coulomb:
        alpha                          2.000000
        third order                    shell-resolved
        anisotropic                    true
        a3                             3.000000
        a5                             4.000000
        cn-shift                       1.200000
        cn-exp                         4.000000
        max-rad                        5.000000


          ...................................................
          :                      SETUP                      :
          :.................................................:
          :  # basis functions                  38          :
          :  # atomic orbitals                  38          :
          :  # shells                           26          :
          :  # electrons                        38          :
          :  max. iterations                   250          :
          :  Hamiltonian                  GFN2-xTB          :
          :  restarted?                      false          :
          :  GBSA solvation                  false          :
          :  PC potential                    false          :
          :  electronic temp.          300.0000000     K    :
          :  accuracy                    1.0000000          :
          :  -> integral cutoff          0.2500000E+02      :
          :  -> integral neglect         0.1000000E-07      :
          :  -> SCF convergence          0.1000000E-05 Eh   :
          :  -> wf. convergence          0.1000000E-03 e    :
          :  Broyden damping             0.4000000          :
          :  net charge                          0          :
          :  unpaired electrons                  0          :
          ...................................................

 iter      E             dE          RMSdq      gap      omega  full diag
   1    -20.2314742 -0.202315E+02  0.268E+00   13.16       0.0  T
   2    -20.2878598 -0.563856E-01  0.148E+00   13.13       1.0  T
   3    -20.2885140 -0.654242E-03  0.771E-01   13.13       1.0  T
   4    -20.2886699 -0.155920E-03  0.886E-02   13.15       1.0  T
   5    -20.2886747 -0.481918E-05  0.469E-02   13.16       1.0  T
   6    -20.2886756 -0.905619E-06  0.225E-03   13.16       9.9  T
   7    -20.2886757 -0.243665E-07  0.105E-03   13.16      21.3  T
   8    -20.2886757 -0.952763E-09  0.215E-04   13.16     103.8  T
   9    -20.2886757 -0.479154E-10  0.718E-05   13.16     311.2  T

   *** convergence criteria satisfied after 9 iterations ***

         #    Occupation            Energy/Eh            Energy/eV
      -------------------------------------------------------------
         1        2.0000           -0.6207475             -16.8914
       ...           ...                  ...                  ...
        13        2.0000           -0.4625208             -12.5858
        14        2.0000           -0.4414357             -12.0121
        15        2.0000           -0.4389357             -11.9440
        16        2.0000           -0.4305219             -11.7151
        17        2.0000           -0.4232136             -11.5162
        18        2.0000           -0.4183744             -11.3845
        19        2.0000           -0.4172938             -11.3551 (HOMO)
        20                          0.0661644               1.8004 (LUMO)
        21                          0.1057714               2.8782
        22                          0.1100448               2.9945
        23                          0.1281492               3.4871
        24                          0.1422876               3.8718
       ...                                ...                  ...
        38                          0.3126339               8.5072
      -------------------------------------------------------------
                  HL-Gap            0.4834582 Eh           13.1556 eV
             Fermi-level           -0.1755647 Eh           -4.7774 eV

 SCC (total)                   0 d,  0 h,  0 min,  0.023 sec
 SCC setup                      ...        0 min,  0.000 sec (  0.255%)
 Dispersion                     ...        0 min,  0.000 sec (  0.215%)
 classical contributions        ...        0 min,  0.000 sec (  0.050%)
 integral evaluation            ...        0 min,  0.001 sec (  3.686%)
 iterations                     ...        0 min,  0.011 sec ( 47.745%)
 molecular gradient             ...        0 min,  0.006 sec ( 27.087%)
 printout                       ...        0 min,  0.005 sec ( 20.896%)

         :::::::::::::::::::::::::::::::::::::::::::::::::::::
         ::                     SUMMARY                     ::
         :::::::::::::::::::::::::::::::::::::::::::::::::::::
         :: total energy             -19.993399199602 Eh    ::
         :: gradient norm              0.016362188826 Eh/a0 ::
         :: HOMO-LUMO gap             13.155567477127 eV    ::
         ::.................................................::
         :: SCC energy               -20.288694724970 Eh    ::
         :: -> isotropic ES            0.003772295552 Eh    ::
         :: -> anisotropic ES          0.007115820588 Eh    ::
         :: -> anisotropic XC          0.013135740984 Eh    ::
         :: -> dispersion             -0.010406947322 Eh    ::
         :: repulsion energy           0.295295525369 Eh    ::
         :: add. restraining           0.000000000000 Eh    ::
         :: total charge              -0.000000000000 e     ::
         :::::::::::::::::::::::::::::::::::::::::::::::::::::

           -------------------------------------------------
          |                Property Printout                |
           -------------------------------------------------

    * Orbital Energies and Occupations

         #    Occupation            Energy/Eh            Energy/eV
      -------------------------------------------------------------
         1        2.0000           -0.6207475             -16.8914
       ...           ...                  ...                  ...
         7        2.0000           -0.5190498             -14.1241
         8        2.0000           -0.4998801             -13.6024
         9        2.0000           -0.4978378             -13.5469
        10        2.0000           -0.4898994             -13.3308
        11        2.0000           -0.4705360             -12.8039
        12        2.0000           -0.4646974             -12.6451
        13        2.0000           -0.4625208             -12.5858
        14        2.0000           -0.4414357             -12.0121
        15        2.0000           -0.4389357             -11.9440
        16        2.0000           -0.4305219             -11.7151
        17        2.0000           -0.4232136             -11.5162
        18        2.0000           -0.4183744             -11.3845
        19        2.0000           -0.4172938             -11.3551 (HOMO)
        20                          0.0661644               1.8004 (LUMO)
        21                          0.1057714               2.8782
        22                          0.1100448               2.9945
        23                          0.1281492               3.4871
        24                          0.1422876               3.8718
        25                          0.1482684               4.0346
        26                          0.1552558               4.2247
        27                          0.1618995               4.4055
        28                          0.1729815               4.7071
        29                          0.1773002               4.8246
        30                          0.1848345               5.0296
       ...                                ...                  ...
        38                          0.3126339               8.5072
      -------------------------------------------------------------
                  HL-Gap            0.4834582 Eh           13.1556 eV
             Fermi-level           -0.1755647 Eh           -4.7774 eV

     #   Z          covCN         q      C6AA      α(0)
     1   6          3.750    -0.100    22.470     6.760
     2   6          3.800    -0.052    21.501     6.602
     3   6          3.802    -0.058    21.622     6.620
     4   6          3.802    -0.058    21.622     6.620
     5   6          3.800    -0.052    21.501     6.602
     6   6          3.750    -0.100    22.470     6.760
     7   1          0.924     0.031     2.574     2.509
     8   1          0.924     0.032     2.558     2.501
     9   1          0.924     0.032     2.558     2.501
    10   1          0.924     0.028     2.612     2.527
    11   1          0.924     0.028     2.612     2.527
    12   1          0.924     0.029     2.598     2.521
    13   1          0.924     0.029     2.598     2.521
    14   1          0.924     0.029     2.598     2.521
    15   1          0.924     0.029     2.598     2.521
    16   1          0.924     0.028     2.612     2.527
    17   1          0.924     0.028     2.612     2.527
    18   1          0.924     0.032     2.558     2.501
    19   1          0.924     0.031     2.574     2.509
    20   1          0.924     0.032     2.558     2.501

 Mol. C6AA /au·bohr⁶  :       2549.549910
 Mol. C8AA /au·bohr⁸  :      52366.734497
 Mol. α(0) /au        :         75.179379


Wiberg/Mayer (AO) data.
largest (>0.10) Wiberg bond orders for each atom

 ---------------------------------------------------------------------------
     #   Z sym  total        # sym  WBO       # sym  WBO       # sym  WBO
 ---------------------------------------------------------------------------
     1   6      3.997 --     2      1.020     8      0.988     9      0.988
                             7      0.987
     2   6      3.998 --     1      1.020     3      1.008    10      0.978
                            11      0.978
     3   6      3.997 --     2      1.008     4      1.007    12      0.977
                            13      0.977
     4   6      3.997 --     5      1.008     3      1.007    15      0.977
                            14      0.977
     5   6      3.998 --     6      1.020     4      1.008    16      0.978
                            17      0.978
     6   6      3.997 --     5      1.020    18      0.988    20      0.988
                            19      0.987
     7   1      0.999 --     1      0.987
     8   1      0.999 --     1      0.988
     9   1      0.999 --     1      0.988
    10   1      0.999 --     2      0.978
    11   1      0.999 --     2      0.978
    12   1      0.999 --     3      0.977
    13   1      0.999 --     3      0.977
    14   1      0.999 --     4      0.977
    15   1      0.999 --     4      0.977
    16   1      0.999 --     5      0.978
    17   1      0.999 --     5      0.978
    18   1      0.999 --     6      0.988
    19   1      0.999 --     6      0.987
    20   1      0.999 --     6      0.988
 ---------------------------------------------------------------------------
Note: The following floating-point exceptions are signalling: IEEE_UNDERFLOW_FLAG
normal termination of xtb

Topologies differ in total number of bonds
Writing topology from bond orders to xtbtopo.mol

molecular dipole:
                 x           y           z       tot (Debye)
 q only:        0.000       0.000       0.000
   full:        0.000       0.000       0.000       0.000
molecular quadrupole (traceless):
                xx          xy          yy          xz          yz          zz
 q only:        0.236      -0.001      -0.266      -0.044       0.003       0.029
  q+dip:       -1.586       0.009       1.577       0.736      -0.017       0.009
   full:       -0.708       0.004       0.690       0.312      -0.007       0.018


           -------------------------------------------------
          | TOTAL ENERGY              -19.993399199602 Eh   |
          | GRADIENT NORM               0.016362188826 Eh/α |
          | HOMO-LUMO GAP              13.155567477127 eV   |
           -------------------------------------------------

------------------------------------------------------------------------
 * finished run on 2026/08/28 at 19:09:39.576     
------------------------------------------------------------------------
 total:
 * wall-time:     0 d,  0 h,  0 min,  0.041 sec
 *  cpu-time:     0 d,  0 h,  0 min,  0.019 sec
 * ratio c/w:     0.453 speedup
 SCF:
 * wall-time:     0 d,  0 h,  0 min,  0.023 sec
 *  cpu-time:     0 d,  0 h,  0 min,  0.009 sec
 * ratio c/w:     0.407 speedup

