      -----------------------------------------------------------      
     |                   =====================                   |     
     |                           x T B                           |     
     |                   =====================                   |     
     |                         S. Grimme                         |     
     |          Mulliken Center for Theoretical Chemistry        |     
     |                    University of Bonn                     |     
      -----------------------------------------------------------      

   * xtb version 6.7.1 (unknown) compiled by 'root@buildkitsandbox' on 2026-08-28

   xtb is free software: you can redistribute it and/or modify it under
   the terms of the GNU Lesser General Public License as published by
   the Free Software Foundation, either version 3 of the License, or
   (at your option) any later version.
   
   xtb is distributed in the hope that it will be useful,
   but WITHOUT ANY WARRANTY; without even the implied warranty of
   MERCHANTABILITY or FITNESS FOR A PARTICULAR PURPOSE.  See the
   GNU Lesser General Public License for more details.
   
   Cite this work as:
   * C. Bannwarth, E. Caldeweyher, S. Ehlert, A. Hansen, P. Pracht,
     J. Seibert, S. Spicher, S. Grimme, WIREs Comput. Mol. Sci., 2020, 11,
     e01493. DOI: 10.1002/wcms.1493
   
   for GFN2-xTB:
   * C. Bannwarth, S. Ehlert and S. Grimme., J. Chem. Theory Comput., 2019,
     15, 1652-1671. DOI: 10.1021/acs.jctc.8b01176
   for GFN1-xTB:
   * S. Grimme, C. Bannwarth, P. Shushkov, J. Chem. Theory Comput., 2017,
     13, 1989-2009. DOI: 10.1021/acs.jctc.7b00118
   for GFN0-xTB:
   * P. Pracht, E. Caldeweyher, S. Ehlert, S. Grimme, ChemRxiv, 2019, preprint.
     DOI: 10.26434/chemrxiv.8326202.v1
   for GFN-FF:
   * S. Spicher and S. Grimme, Angew. Chem. Int. Ed., 2020, 59, 15665-15673.
     DOI: 10.1002/anie.202004239
   
   for ALPB and GBSA implicit solvation:
   * S. Ehlert, M. Stahn, S. Spicher, S. Grimme, J. Chem. Theory Comput.,
     2021, 17, 4250-4261. DOI: 10.1021/acs.jctc.1c00471
   
   for ddCOSMO and CPCM-X implicit solvation:
   * M. Stahn, S. Ehlert, S. Grimme, J. Phys. Chem. A,
     2023, XX, XXXX-XXXX. DOI: 10.1021/acs.jpca.3c04382
   
   for DFT-D4:
   * E. Caldeweyher, C. Bannwarth and S. Grimme, J. Chem. Phys., 2017,
     147, 034112. DOI: 10.1063/1.4993215
   * E. Caldeweyher, S. Ehlert, A. Hansen, H. Neugebauer, S. Spicher,
     C. Bannwarth and S. Grimme, J. Chem. Phys., 2019, 150, 154122.
     DOI: 10.1063/1.5090222
   * E. Caldeweyher, J.-M. Mewes, S. Ehlert and S. Grimme, Phys. Chem. Chem. Phys.
     2020, 22, 8499-8512. DOI: 10.1039/D0CP00502A
   
   for sTDA-xTB:
   * S. Grimme and C. Bannwarth, J. Chem. Phys., 2016, 145, 054103.
     DOI: 10.1063/1.4959605
   
   in the mass-spec context:
   * V. Asgeirsson, C. Bauer and S. Grimme, Chem. Sci., 2017, 8, 4879.
     DOI: 10.1039/c7sc00601b
   * J. Koopman and S. Grimme, ACS Omega 2019, 4, 12, 15120-15133.
     DOI: 10.1021/acsomega.9b02011
   
   for metadynamics refer to:
   * S. Grimme, J. Chem. Theory Comput., 2019, 155, 2847-2862
     DOI: 10.1021/acs.jctc.9b00143
   
   for SPH calculations refer to:
   * S. Spicher and S. Grimme, J. Chem. Theory Comput., 2021, 17, 1701-1714
     DOI: 10.1021/acs.jctc.0c01306
   
   for ONIOM refer to:
   * C. Plett, A. Katbashev, S. Ehlert, S. Grimme, M. Bursch,
     Phys. Chem. Chem. Phys., 2023, 25, 17860-17868. DOI: 10.1039/D3CP02178E
   
   for DIPRO refer to:
   * J. Kohn, N. Gildemeister, S. Grimme, D. Fazzi, A. Hansen,
     J. Chem. Phys. 159, 144106 (2023). DOI: 10.1063/5.0167484
   
   for PTB refer to:
   * S. Grimme, M. Mueller, A. Hansen, J. Chem. Phys., 2023, 158, 124111.
     DOI: 10.1063/5.0137838
   
   with help from (in alphabetical order)
   P. Atkinson, C. Bannwarth, F. Bohle, G. Brandenburg, E. Caldeweyher,
   M. Checinski, S. Dohm, S. Ehlert, S. Ehrlich, M. Friede, T. Froitzheim,
   I. Gerasimov, C. Hölzer, A. Katbashev, J. Kohn, J. Koopman, C. Lavigne,
   S. Lehtola, F. März, M. Müller, F. Musil, H. Neugebauer, J. Pisarek,
   C. Plett, P. Pracht, F. Pultar, J. Seibert, P. Shushkov, S. Spicher,
   M. Stahn, M. Steiner, T. Strunk, J. Stückrath, T. Rose, and J. Unsleber
   
 * started run on 2026/08/28 at 19:10:02.619     
   ID    Z sym.   atoms
    1    6 C      1-6
    2    1 H      7-20

           -------------------------------------------------
          |                Calculation Setup                |
           -------------------------------------------------

          program call               : xtb in.xyz --gfn 2 --opt --norestart
          hostname                   : 756d39058c4f
          coordinate file            : in.xyz
          random seed                :             847220578


           -------------------------------------------------
          |                 G F N 2 - x T B                 |
           -------------------------------------------------

        Reference                      10.1021/acs.jctc.8b01176
      * Hamiltonian:
        H0-scaling (s, p, d)           1.850000    2.230000    2.230000
        zeta-weighting                 0.500000
      * Dispersion:
        s8                             2.700000
        a1                             0.520000
        a2                             5.000000
        s9                             5.000000
      * Repulsion:
        kExp                           1.500000    1.000000
        rExp                           1.000000
      * Coulomb:
        alpha                          2.000000
        third order                    shell-resolved
        anisotropic                    true
        a3                             3.000000
        a5                             4.000000
        cn-shift                       1.200000
        cn-exp                         4.000000
        max-rad                        5.000000


          ...................................................
          :                      SETUP                      :
          :.................................................:
          :  # basis functions                  38          :
          :  # atomic orbitals                  38          :
          :  # shells                           26          :
          :  # electrons                        38          :
          :  max. iterations                   250          :
          :  Hamiltonian                  GFN2-xTB          :
          :  restarted?                      false          :
          :  GBSA solvation                  false          :
          :  PC potential                    false          :
          :  electronic temp.          300.0000000     K    :
          :  accuracy                    1.0000000          :
          :  -> integral cutoff          0.2500000E+02      :
          :  -> integral neglect         0.1000000E-07      :
          :  -> SCF convergence          0.1000000E-05 Eh   :
          :  -> wf. convergence          0.1000000E-03 e    :
          :  Broyden damping             0.4000000          :
          :  net charge                          0          :
          :  unpaired electrons                  0          :
          ...................................................

 iter      E             dE          RMSdq      gap      omega  full diag
   1    -20.2314742 -0.202315E+02  0.268E+00   13.16       0.0  T
   2    -20.2878598 -0.563856E-01  0.148E+00   13.13       1.0  T
   3    -20.2885140 -0.654242E-03  0.771E-01   13.13       1.0  T
   4    -20.2886699 -0.155920E-03  0.886E-02   13.15       1.0  T
   5    -20.2886747 -0.481918E-05  0.469E-02   13.16       1.0  T
   6    -20.2886756 -0.905619E-06  0.225E-03   13.16       9.9  T
   7    -20.2886757 -0.243665E-07  0.105E-03   13.16      21.3  T
   8    -20.2886757 -0.952763E-09  0.215E-04   13.16     103.8  T
   9    -20.2886757 -0.479154E-10  0.718E-05   13.16     311.2  T

   *** convergence criteria satisfied after 9 iterations ***

         #    Occupation            Energy/Eh            Energy/eV
      -------------------------------------------------------------
         1        2.0000           -0.6207475             -16.8914
       ...           ...                  ...                  ...
        13        2.0000           -0.4625208             -12.5858
        14        2.0000           -0.4414357             -12.0121
        15        2.0000           -0.4389357             -11.9440
        16        2.0000           -0.4305219             -11.7151
        17        2.0000           -0.4232136             -11.5162
        18        2.0000           -0.4183744             -11.3845
        19        2.0000           -0.4172938             -11.3551 (HOMO)
        20                          0.0661644               1.8004 (LUMO)
        21                          0.1057714               2.8782
        22                          0.1100448               2.9945
        23                          0.1281492               3.4871
        24                          0.1422876               3.8718
       ...                                ...                  ...
        38                          0.3126339               8.5072
      -------------------------------------------------------------
                  HL-Gap            0.4834582 Eh           13.1556 eV
             Fermi-level           -0.1755647 Eh           -4.7774 eV

 SCC (total)                   0 d,  0 h,  0 min,  0.010 sec
 SCC setup                      ...        0 min,  0.000 sec (  0.467%)
 Dispersion                     ...        0 min,  0.000 sec (  0.463%)
 classical contributions        ...        0 min,  0.000 sec (  0.109%)
 integral evaluation            ...        0 min,  0.004 sec ( 36.206%)
 iterations                     ...        0 min,  0.004 sec ( 36.504%)
 molecular gradient             ...        0 min,  0.002 sec ( 21.757%)
 printout                       ...        0 min,  0.000 sec (  4.406%)

         :::::::::::::::::::::::::::::::::::::::::::::::::::::
         ::                     SUMMARY                     ::
         :::::::::::::::::::::::::::::::::::::::::::::::::::::
         :: total energy             -19.993399199602 Eh    ::
         :: gradient norm              0.016362188826 Eh/a0 ::
         :: HOMO-LUMO gap             13.155567477127 eV    ::
         ::.................................................::
         :: SCC energy               -20.288694724970 Eh    ::
         :: -> isotropic ES            0.003772295552 Eh    ::
         :: -> anisotropic ES          0.007115820588 Eh    ::
         :: -> anisotropic XC          0.013135740984 Eh    ::
         :: -> dispersion             -0.010406947322 Eh    ::
         :: repulsion energy           0.295295525369 Eh    ::
         :: add. restraining           0.000000000000 Eh    ::
         :: total charge              -0.000000000000 e     ::
         :::::::::::::::::::::::::::::::::::::::::::::::::::::

      ----------------------------------------------------------- 
     |                   =====================                   |
     |                        A N C O P T                        |
     |                   =====================                   |
     |               Approximate Normal Coordinate               |
     |                Rational Function Optimizer                |
      ----------------------------------------------------------- 

          ...................................................
          :                      SETUP                      :
          :.................................................:
          :   optimization level            normal          :
          :   max. optcycles                   200          :
          :   ANC micro-cycles                  20          :
          :   degrees of freedom                54          :
          :.................................................:
          :   RF solver                   davidson          :
          :   write xtbopt.log                true          :
          :   linear?                        false          :
          :   energy convergence         0.5000000E-05 Eh   :
          :   grad. convergence          0.1000000E-02 Eh/α :
          :   maximum RF displ.          1.0000000          :
          :   Hlow (freq-cutoff)         0.1000000E-01      :
          :   Hmax (freq-cutoff)         5.0000000          :
          :   S6 in model hess.         20.0000000          :
          ...................................................

generating ANC from exact Hessian ...
Using Lindh-Hessian (1995)
 Shifting diagonal of input Hessian by    8.1883600183343848E-003
 Lowest  eigenvalues of input Hessian
    0.000000    0.000000    0.000000    0.000000    0.000000    0.000000
    0.010000    0.010809    0.011309    0.014296    0.017810    0.017920
    0.019660    0.022158    0.028396    0.046218    0.048855    0.050144
 Highest eigenvalues
    1.165223    1.185417    1.186832    1.232330    1.244678    1.293992


........................................................................
.............................. CYCLE    1 ..............................
........................................................................

 iter      E             dE          RMSdq      gap      omega  full diag
   1    -20.2886757 -0.202887E+02  0.435E-06   13.16       0.0  T
   2    -20.2886757 -0.639488E-13  0.218E-06   13.16   10277.8  T
   3    -20.2886757 -0.355271E-14  0.900E-07   13.16   24856.2  T
     SCC iter.                  ...        0 min,  0.002 sec
     gradient                   ...        0 min,  0.004 sec
 * total energy  :   -19.9933992 Eh     change       -0.4366285E-11 Eh
   gradient norm :     0.0163619 Eh/α   predicted     0.0000000E+00 (-100.00%)
   displ. norm   :     0.0878939 α      lambda       -0.8286040E-03
   maximum displ.:     0.0467504 α      in ANC's #8, #23, #36, ...

........................................................................
.............................. CYCLE    2 ..............................
........................................................................

 iter      E             dE          RMSdq      gap      omega  full diag
   1    -20.2964856 -0.202965E+02  0.107E-01   12.97       0.0  T
   2    -20.2964894 -0.376876E-05  0.621E-02   12.97       1.0  T
   3    -20.2964897 -0.293139E-06  0.453E-03   12.97       4.9  T
   4    -20.2964897 -0.148341E-07  0.164E-03   12.97      13.6  T
   5    -20.2964897 -0.155090E-09  0.504E-04   12.97      44.3  T
   6    -20.2964897 -0.543103E-09  0.772E-05   12.97     289.6  T
     SCC iter.                  ...        0 min,  0.003 sec
     gradient                   ...        0 min,  0.002 sec
 * total energy  :   -19.9938100 Eh     change       -0.4108260E-03 Eh
   gradient norm :     0.0055745 Eh/α   predicted    -0.4175030E-03 (   1.63%)
   displ. norm   :     0.0221236 α      lambda       -0.4173523E-04
   maximum displ.:     0.0170788 α      in ANC's #6, #8, #52, ...

........................................................................
.............................. CYCLE    3 ..............................
........................................................................

 iter      E             dE          RMSdq      gap      omega  full diag
   1    -20.2979448 -0.202979E+02  0.178E-02   13.01       0.0  T
   2    -20.2979452 -0.387808E-06  0.985E-03   13.02       2.3  T
   3    -20.2979452 -0.262794E-08  0.238E-03   13.02       9.4  T
   4    -20.2979452 -0.276756E-08  0.219E-04   13.02     102.0  T
   5    -20.2979452 -0.156440E-09  0.121E-04   13.02     185.1  T
     SCC iter.                  ...        0 min,  0.003 sec
     gradient                   ...        0 min,  0.005 sec
 * total energy  :   -19.9938357 Eh     change       -0.2562474E-04 Eh
   gradient norm :     0.0015269 Eh/α   predicted    -0.2135588E-04 ( -16.66%)
   displ. norm   :     0.0115902 α      lambda       -0.3910470E-05
   maximum displ.:     0.0105013 α      in ANC's #6, #13, #52, ...

........................................................................
.............................. CYCLE    4 ..............................
........................................................................

 iter      E             dE          RMSdq      gap      omega  full diag
   1    -20.2982829 -0.202983E+02  0.923E-03   13.02       0.0  T
   2    -20.2982829 -0.646127E-07  0.522E-03   13.02       4.3  T
   3    -20.2982829 -0.554511E-09  0.926E-04   13.02      24.1  T
   4    -20.2982829 -0.121616E-08  0.134E-04   13.02     167.0  T
     SCC iter.                  ...        0 min,  0.003 sec
     gradient                   ...        0 min,  0.003 sec
 * total energy  :   -19.9938376 Eh     change       -0.1911161E-05 Eh
   gradient norm :     0.0005577 Eh/α   predicted    -0.1957578E-05 (   2.43%)
   displ. norm   :     0.0035257 α      lambda       -0.4523101E-06
   maximum displ.:     0.0024114 α      in ANC's #8, #6, #13, ...

   *** GEOMETRY OPTIMIZATION CONVERGED AFTER 4 ITERATIONS ***

------------------------------------------------------------------------
 total energy gain   :        -0.0004384 Eh       -0.2751 kcal/mol
 total RMSD          :         0.0171316 a0        0.0091 Å
 total power (kW/mol):        -0.2877297 (step)  -27.6170 (real)
------------------------------------------------------------------------

 ANCopt (total)                0 d,  0 h,  0 min,  0.042 sec
 optimizer setup                ...        0 min,  0.000 sec (  0.580%)
 model hessian                  ...        0 min,  0.007 sec ( 16.142%)
 ANC generation                 ...        0 min,  0.001 sec (  1.876%)
 coordinate transformation      ...        0 min,  0.000 sec (  0.121%)
 single point calculation       ...        0 min,  0.033 sec ( 78.865%)
 optimization log               ...        0 min,  0.000 sec (  0.625%)
 hessian update                 ...        0 min,  0.000 sec (  0.069%)
 rational function              ...        0 min,  0.000 sec (  0.659%)

================
 final structure:
================
20
 xtb: 6.7.1 (unknown)
C            1.01279984768988       -0.07216235070157        0.00164542590785
C            2.53646191422992       -0.07406612195896       -0.02240096588956
C            3.08274978317463       -0.08888782197876       -1.44817134619327
C            4.60900321594504       -0.08949212496289       -1.47957964678644
C            5.15529066023911       -0.10574303247779       -2.90533456230759
C            6.67895339122594       -0.10600513655695       -2.92939840860380
H            0.64541233524562       -0.06174414223855        1.02508598080004
H            0.62290479302692       -0.95831321226244       -0.49444396435866
H            0.62485060049298        0.80497807264437       -0.51168508057644
H            2.90651090091006       -0.95065204520082        0.51433582784664
H            2.90842950297920        0.81224045314104        0.49675552964730
H            2.71100327618219        0.78711268755933       -1.98524036564190
H            2.71067401714812       -0.97565684557258       -1.96703159635922
H            4.98077513645107       -0.96494500581286       -0.94163504724135
H            4.98105410543003        0.79780547306524       -0.96160627399475
H            4.78427032600387        0.76965596814659       -3.44333315009913
H            4.78429301921754       -0.99321019894442       -3.42320359949691
H            7.06786928714466        0.78144642474420       -2.43486552925332
H            7.04634038507662       -0.11779812238705       -3.95282412724324
H            7.06788350218661       -0.98181291824513       -2.41453910015623

 Bond Distances (Angstroems)
 ---------------------------
C1-C2=1.5239         C1-H7=1.0874         C1-H8=1.0878         C1-H9=1.0878         C2-C1=1.5239         C2-C3=1.5269         
C2-H10=1.0924        C2-H11=1.0924        C3-C2=1.5269         C3-C4=1.5266         C3-H12=1.0927        C3-H13=1.0927        
C4-C3=1.5266         C4-C5=1.5269         C4-H14=1.0927        C4-H15=1.0927        C5-C4=1.5269         C5-C6=1.5239         
C5-H16=1.0924        C5-H17=1.0924        C6-C5=1.5239         C6-H18=1.0878        C6-H19=1.0874        C6-H20=1.0878        
H7-C1=1.0874         H8-C1=1.0878         H9-C1=1.0878         H10-C2=1.0924        H11-C2=1.0924        H12-C3=1.0927        
H13-C3=1.0927        H14-C4=1.0927        H15-C4=1.0927        H16-C5=1.0924        H17-C5=1.0924        H18-C6=1.0878        
H19-C6=1.0874        H20-C6=1.0878        
 C  H  Rav=1.0905 sigma=0.0024  Rmin=1.0874  Rmax=1.0927    14
 C  C  Rav=1.5256 sigma=0.0015  Rmin=1.5239  Rmax=1.5269     5

 selected bond angles (degree)
 --------------------
H7-C1-C2=110.65                H8-C1-C2=110.50                H8-C1-H7=108.42                H9-C1-C2=110.50                
H9-C1-H7=108.42                H9-C1-H8=108.29                C3-C2-C1=111.87                H10-C2-C1=109.39               
H10-C2-C3=109.26               H11-C2-C1=109.39               H11-C2-C3=109.26               H11-C2-H10=107.59              
C4-C3-C2=112.14                H12-C3-C2=109.24               H12-C3-C4=109.29               H13-C3-C2=109.23               
H13-C3-C4=109.29               H13-C3-H12=107.54              C5-C4-C3=112.14                H14-C4-C3=109.29               
H14-C4-C5=109.23               H15-C4-C3=109.29               H15-C4-C5=109.24               H15-C4-H14=107.54              
C6-C5-C4=111.87                H16-C5-C4=109.26               H16-C5-C6=109.39               H17-C5-C4=109.26               
H17-C5-C6=109.39               H17-C5-H16=107.59              H18-C6-C5=110.50               H19-C6-C5=110.65               
H19-C6-H18=108.42              H20-C6-C5=110.50               H20-C6-H18=108.29              H20-C6-H19=108.42              

 selected dihedral angles (degree)
 ---------------------------------
C3-C2-C1-H7=179.99            C3-C2-C1-H8= 59.90            C3-C2-C1-H9=300.07            H10-C2-C1-H7= 58.79           
H10-C2-C1-H8=298.71           H10-C2-C1-H9=178.88           H11-C2-C1-H7=301.19           H11-C2-C1-H8=181.10           
H11-C2-C1-H9= 61.27           C4-C3-C2-C1=179.94            C4-C3-C2-H10=301.22           C4-C3-C2-H11= 58.67           
H12-C3-C2-C1= 58.63           H12-C3-C2-H10=179.90          H12-C3-C2-H11=297.36          H13-C3-C2-C1=301.26           
H13-C3-C2-H10= 62.53          H13-C3-C2-H11=179.99          C5-C4-C3-C2=179.94            C5-C4-C3-H12=301.22           
C5-C4-C3-H13= 58.66           H14-C4-C3-C2= 58.66           H14-C4-C3-H12=179.94          H14-C4-C3-H13=297.38          
H15-C4-C3-C2=301.22           H15-C4-C3-H12= 62.51          H15-C4-C3-H13=179.94          C6-C5-C4-C3=179.99            
C6-C5-C4-H14=301.30           C6-C5-C4-H15= 58.68           H16-C5-C4-C3= 58.72           H16-C5-C4-H14=180.03          
H16-C5-C4-H15=297.40          H17-C5-C4-C3=301.26           H17-C5-C4-H14= 62.57          H17-C5-C4-H15=179.95          
H18-C6-C5-C4=300.08           H18-C6-C5-H16= 61.28          H18-C6-C5-H17=178.88          H19-C6-C5-C4=179.99           
H19-C6-C5-H16=301.19          H19-C6-C5-H17= 58.80          H20-C6-C5-C4= 59.91           H20-C6-C5-H16=181.10          
H20-C6-C5-H17=298.71          
           -------------------------------------------------
          |                Final Singlepoint                |
           -------------------------------------------------

          ...................................................
          :                      SETUP                      :
          :.................................................:
          :  # basis functions                  38          :
          :  # atomic orbitals                  38          :
          :  # shells                           26          :
          :  # electrons                        38          :
          :  max. iterations                   250          :
          :  Hamiltonian                  GFN2-xTB          :
          :  restarted?                      false          :
          :  GBSA solvation                  false          :
          :  PC potential                    false          :
          :  electronic temp.          300.0000000     K    :
          :  accuracy                    1.0000000          :
          :  -> integral cutoff          0.2500000E+02      :
          :  -> integral neglect         0.1000000E-07      :
          :  -> SCF convergence          0.1000000E-05 Eh   :
          :  -> wf. convergence          0.1000000E-03 e    :
          :  Broyden damping             0.4000000          :
          :  net charge                          0          :
          :  unpaired electrons                  0          :
          ...................................................

 iter      E             dE          RMSdq      gap      omega  full diag
   1    -20.2982829 -0.202983E+02  0.598E-05   13.02       0.0  T
   2    -20.2982829 -0.888178E-12  0.345E-05   13.02     647.4  T
   3    -20.2982829 -0.280664E-12  0.292E-06   13.02    7667.2  T

   *** convergence criteria satisfied after 3 iterations ***

         #    Occupation            Energy/Eh            Energy/eV
      -------------------------------------------------------------
         1        2.0000           -0.6211443             -16.9022
       ...           ...                  ...                  ...
        13        2.0000           -0.4624916             -12.5850
        14        2.0000           -0.4421571             -12.0317
        15        2.0000           -0.4387050             -11.9378
        16        2.0000           -0.4290004             -11.6737
        17        2.0000           -0.4236214             -11.5273
        18        2.0000           -0.4199194             -11.4266
        19        2.0000           -0.4170696             -11.3490 (HOMO)
        20                          0.0615260               1.6742 (LUMO)
        21                          0.1136195               3.0917
        22                          0.1167581               3.1772
        23                          0.1307086               3.5568
        24                          0.1499959               4.0816
       ...                                ...                  ...
        38                          0.3198923               8.7047
      -------------------------------------------------------------
                  HL-Gap            0.4785956 Eh           13.0232 eV
             Fermi-level           -0.1777718 Eh           -4.8374 eV

 SCC (total)                   0 d,  0 h,  0 min,  0.005 sec
 SCC setup                      ...        0 min,  0.000 sec (  6.138%)
 Dispersion                     ...        0 min,  0.000 sec (  0.588%)
 classical contributions        ...        0 min,  0.000 sec (  0.216%)
 integral evaluation            ...        0 min,  0.001 sec ( 21.354%)
 iterations                     ...        0 min,  0.001 sec ( 27.959%)
 molecular gradient             ...        0 min,  0.002 sec ( 42.472%)
 printout                       ...        0 min,  0.000 sec (  1.149%)

         :::::::::::::::::::::::::::::::::::::::::::::::::::::
         ::                     SUMMARY                     ::
         :::::::::::::::::::::::::::::::::::::::::::::::::::::
         :: total energy             -19.993837561565 Eh    ::
         :: gradient norm              0.000557431733 Eh/a0 ::
         :: HOMO-LUMO gap             13.023249388332 eV    ::
         ::.................................................::
         :: SCC energy               -20.298303007244 Eh    ::
         :: -> isotropic ES            0.003911805682 Eh    ::
         :: -> anisotropic ES          0.006804021686 Eh    ::
         :: -> anisotropic XC          0.012738938300 Eh    ::
         :: -> dispersion             -0.010398193757 Eh    ::
         :: repulsion energy           0.304465445679 Eh    ::
         :: add. restraining           0.000000000000 Eh    ::
         :: total charge              -0.000000000000 e     ::
         :::::::::::::::::::::::::::::::::::::::::::::::::::::

           -------------------------------------------------
          |                Property Printout                |
           -------------------------------------------------

    * Orbital Energies and Occupations

         #    Occupation            Energy/Eh            Energy/eV
      -------------------------------------------------------------
         1        2.0000           -0.6211443             -16.9022
       ...           ...                  ...                  ...
         7        2.0000           -0.5197348             -14.1427
         8        2.0000           -0.5003045             -13.6140
         9        2.0000           -0.4980516             -13.5527
        10        2.0000           -0.4895449             -13.3212
        11        2.0000           -0.4710623             -12.8183
        12        2.0000           -0.4653449             -12.6627
        13        2.0000           -0.4624916             -12.5850
        14        2.0000           -0.4421571             -12.0317
        15        2.0000           -0.4387050             -11.9378
        16        2.0000           -0.4290004             -11.6737
        17        2.0000           -0.4236214             -11.5273
        18        2.0000           -0.4199194             -11.4266
        19        2.0000           -0.4170696             -11.3490 (HOMO)
        20                          0.0615260               1.6742 (LUMO)
        21                          0.1136195               3.0917
        22                          0.1167581               3.1772
        23                          0.1307086               3.5568
        24                          0.1499959               4.0816
        25                          0.1570216               4.2728
        26                          0.1571031               4.2750
        27                          0.1662197               4.5231
        28                          0.1824908               4.9658
        29                          0.1839157               5.0046
        30                          0.1953561               5.3159
       ...                                ...                  ...
        38                          0.3198923               8.7047
      -------------------------------------------------------------
                  HL-Gap            0.4785956 Eh           13.0232 eV
             Fermi-level           -0.1777718 Eh           -4.8374 eV

     #   Z          covCN         q      C6AA      α(0)
     1   6          3.752    -0.102    22.510     6.766
     2   6          3.801    -0.053    21.521     6.605
     3   6          3.803    -0.059    21.635     6.622
     4   6          3.803    -0.059    21.635     6.622
     5   6          3.801    -0.053    21.521     6.605
     6   6          3.752    -0.102    22.510     6.766
     7   1          0.925     0.033     2.551     2.498
     8   1          0.925     0.033     2.542     2.493
     9   1          0.925     0.033     2.542     2.493
    10   1          0.924     0.028     2.610     2.526
    11   1          0.924     0.028     2.609     2.526
    12   1          0.924     0.029     2.598     2.521
    13   1          0.924     0.029     2.599     2.521
    14   1          0.924     0.029     2.599     2.521
    15   1          0.924     0.029     2.599     2.521
    16   1          0.924     0.028     2.609     2.526
    17   1          0.924     0.028     2.610     2.526
    18   1          0.925     0.033     2.542     2.493
    19   1          0.925     0.033     2.551     2.498
    20   1          0.925     0.033     2.542     2.493

 Mol. C6AA /au·bohr⁶  :       2547.467103
 Mol. C8AA /au·bohr⁸  :      52347.228103
 Mol. α(0) /au        :         75.142966


Wiberg/Mayer (AO) data.
largest (>0.10) Wiberg bond orders for each atom

 ---------------------------------------------------------------------------
     #   Z sym  total        # sym  WBO       # sym  WBO       # sym  WBO
 ---------------------------------------------------------------------------
     1   6      3.997 --     2      1.019     8      0.988     9      0.988
                             7      0.988
     2   6      3.998 --     1      1.019     3      1.008    10      0.979
                            11      0.979
     3   6      3.997 --     2      1.008     4      1.007    12      0.978
                            13      0.978
     4   6      3.997 --     5      1.008     3      1.007    15      0.978
                            14      0.978
     5   6      3.998 --     6      1.019     4      1.008    16      0.979
                            17      0.979
     6   6      3.997 --     5      1.019    18      0.988    20      0.988
                            19      0.988
     7   1      0.999 --     1      0.988
     8   1      0.999 --     1      0.988
     9   1      0.999 --     1      0.988
    10   1      0.999 --     2      0.979
    11   1      0.999 --     2      0.979
    12   1      0.999 --     3      0.978
    13   1      0.999 --     3      0.978
    14   1      0.999 --     4      0.978
    15   1      0.999 --     4      0.978
    16   1      0.999 --     5      0.979
    17   1      0.999 --     5      0.979
    18   1      0.999 --     6      0.988
    19   1      0.999 --     6      0.988
    20   1      0.999 --     6      0.988
 ---------------------------------------------------------------------------

Topologies differ in total number of bonds
Writing topology from bond orders to xtbtopo.mol

molecular dipole:
                 x           y           z       tot (Debye)
 q only:       -0.000       0.000      -0.000
   full:       -0.000       0.000      -0.000       0.000
molecular quadrupole (traceless):
                xx          xy          yy          xz          yz          zz
 q only:        0.335      -0.001      -0.320      -0.120       0.003      -0.015
  q+dip:       -1.431       0.008       1.569       0.610      -0.019      -0.138
   full:       -0.593       0.003       0.679       0.242      -0.008      -0.085

           -------------------------------------------------
          |                Geometry Summary                 |
           -------------------------------------------------

      molecular mass/u    :       86.1755859
   center of mass at/Å    :        3.8458768      -0.0893857      -1.4638734
  moments of inertia/u·Å² :        0.3477022E+02   0.4376895E+03   0.4536610E+03
rotational constants/cm⁻¹ :        0.4848296E+00   0.3851505E-01   0.3715909E-01

 * 19 selected distances

     #   Z          #   Z                                           value/Å
     1   6          2   6                                         1.5238531
     2   6          3   6                                         1.5269158 (max)
     3   6          4   6                                         1.5265768
     4   6          5   6                                         1.5269157
     5   6          6   6                                         1.5238529
     1   6          7   1                                         1.0874341
     1   6          8   1                                         1.0878357
     1   6          9   1                                         1.0878366
     2   6         10   1                                         1.0924403
     2   6         11   1                                         1.0924390
     3   6         12   1                                         1.0927103
     3   6         13   1                                         1.0927103
     4   6         14   1                                         1.0927107
     4   6         15   1                                         1.0927102
     5   6         16   1                                         1.0924386
     5   6         17   1                                         1.0924403
     6   6         18   1                                         1.0878368
Note: The following floating-point exceptions are signalling: IEEE_UNDERFLOW_FLAG
normal termination of xtb
     6   6         19   1                                         1.0874340 (min)
     6   6         20   1                                         1.0878356

 * 2 distinct bonds (by element types)

   Z      Z             #   av. dist./Å        max./Å        min./Å
   1 H    6 C          14     1.0904866     1.0927107     1.0874340
   6 C    6 C           5     1.5256229     1.5269158     1.5238529


optimized geometry written to: xtbopt.xyz


           -------------------------------------------------
          | TOTAL ENERGY              -19.993837561565 Eh   |
          | GRADIENT NORM               0.000557431733 Eh/α |
          | HOMO-LUMO GAP              13.023249388332 eV   |
           -------------------------------------------------

------------------------------------------------------------------------
 * finished run on 2026/08/28 at 19:10:02.695     
------------------------------------------------------------------------
 total:
 * wall-time:     0 d,  0 h,  0 min,  0.076 sec
 *  cpu-time:     0 d,  0 h,  0 min,  0.070 sec
 * ratio c/w:     0.918 speedup
 SCF:
 * wall-time:     0 d,  0 h,  0 min,  0.010 sec
 *  cpu-time:     0 d,  0 h,  0 min,  0.007 sec
 * ratio c/w:     0.682 speedup
 ANC optimizer:
 * wall-time:     0 d,  0 h,  0 min,  0.048 sec
 *  cpu-time:     0 d,  0 h,  0 min,  0.045 sec
 * ratio c/w:     0.943 speedup

