      -----------------------------------------------------------      
     |                   =====================                   |     
     |                           x T B                           |     
     |                   =====================                   |     
     |                         S. Grimme                         |     
     |          Mulliken Center for Theoretical Chemistry        |     
     |                    University of Bonn                     |     
      -----------------------------------------------------------      

   * xtb version 6.7.1 (unknown) compiled by 'root@buildkitsandbox' on 2026-08-28

   xtb is free software: you can redistribute it and/or modify it under
   the terms of the GNU Lesser General Public License as published by
   the Free Software Foundation, either version 3 of the License, or
   (at your option) any later version.
   
   xtb is distributed in the hope that it will be useful,
   but WITHOUT ANY WARRANTY; without even the implied warranty of
   MERCHANTABILITY or FITNESS FOR A PARTICULAR PURPOSE.  See the
   GNU Lesser General Public License for more details.
   
   Cite this work as:
   * C. Bannwarth, E. Caldeweyher, S. Ehlert, A. Hansen, P. Pracht,
     J. Seibert, S. Spicher, S. Grimme, WIREs Comput. Mol. Sci., 2020, 11,
     e01493. DOI: 10.1002/wcms.1493
   
   for GFN2-xTB:
   * C. Bannwarth, S. Ehlert and S. Grimme., J. Chem. Theory Comput., 2019,
     15, 1652-1671. DOI: 10.1021/acs.jctc.8b01176
   for GFN1-xTB:
   * S. Grimme, C. Bannwarth, P. Shushkov, J. Chem. Theory Comput., 2017,
     13, 1989-2009. DOI: 10.1021/acs.jctc.7b00118
   for GFN0-xTB:
   * P. Pracht, E. Caldeweyher, S. Ehlert, S. Grimme, ChemRxiv, 2019, preprint.
     DOI: 10.26434/chemrxiv.8326202.v1
   for GFN-FF:
   * S. Spicher and S. Grimme, Angew. Chem. Int. Ed., 2020, 59, 15665-15673.
     DOI: 10.1002/anie.202004239
   
   for ALPB and GBSA implicit solvation:
   * S. Ehlert, M. Stahn, S. Spicher, S. Grimme, J. Chem. Theory Comput.,
     2021, 17, 4250-4261. DOI: 10.1021/acs.jctc.1c00471
   
   for ddCOSMO and CPCM-X implicit solvation:
   * M. Stahn, S. Ehlert, S. Grimme, J. Phys. Chem. A,
     2023, XX, XXXX-XXXX. DOI: 10.1021/acs.jpca.3c04382
   
   for DFT-D4:
   * E. Caldeweyher, C. Bannwarth and S. Grimme, J. Chem. Phys., 2017,
     147, 034112. DOI: 10.1063/1.4993215
   * E. Caldeweyher, S. Ehlert, A. Hansen, H. Neugebauer, S. Spicher,
     C. Bannwarth and S. Grimme, J. Chem. Phys., 2019, 150, 154122.
     DOI: 10.1063/1.5090222
   * E. Caldeweyher, J.-M. Mewes, S. Ehlert and S. Grimme, Phys. Chem. Chem. Phys.
     2020, 22, 8499-8512. DOI: 10.1039/D0CP00502A
   
   for sTDA-xTB:
   * S. Grimme and C. Bannwarth, J. Chem. Phys., 2016, 145, 054103.
     DOI: 10.1063/1.4959605
   
   in the mass-spec context:
   * V. Asgeirsson, C. Bauer and S. Grimme, Chem. Sci., 2017, 8, 4879.
     DOI: 10.1039/c7sc00601b
   * J. Koopman and S. Grimme, ACS Omega 2019, 4, 12, 15120-15133.
     DOI: 10.1021/acsomega.9b02011
   
   for metadynamics refer to:
   * S. Grimme, J. Chem. Theory Comput., 2019, 155, 2847-2862
     DOI: 10.1021/acs.jctc.9b00143
   
   for SPH calculations refer to:
   * S. Spicher and S. Grimme, J. Chem. Theory Comput., 2021, 17, 1701-1714
     DOI: 10.1021/acs.jctc.0c01306
   
   for ONIOM refer to:
   * C. Plett, A. Katbashev, S. Ehlert, S. Grimme, M. Bursch,
     Phys. Chem. Chem. Phys., 2023, 25, 17860-17868. DOI: 10.1039/D3CP02178E
   
   for DIPRO refer to:
   * J. Kohn, N. Gildemeister, S. Grimme, D. Fazzi, A. Hansen,
     J. Chem. Phys. 159, 144106 (2023). DOI: 10.1063/5.0167484
   
   for PTB refer to:
   * S. Grimme, M. Mueller, A. Hansen, J. Chem. Phys., 2023, 158, 124111.
     DOI: 10.1063/5.0137838
   
   with help from (in alphabetical order)
   P. Atkinson, C. Bannwarth, F. Bohle, G. Brandenburg, E. Caldeweyher,
   M. Checinski, S. Dohm, S. Ehlert, S. Ehrlich, M. Friede, T. Froitzheim,
   I. Gerasimov, C. Hölzer, A. Katbashev, J. Kohn, J. Koopman, C. Lavigne,
   S. Lehtola, F. März, M. Müller, F. Musil, H. Neugebauer, J. Pisarek,
   C. Plett, P. Pracht, F. Pultar, J. Seibert, P. Shushkov, S. Spicher,
   M. Stahn, M. Steiner, T. Strunk, J. Stückrath, T. Rose, and J. Unsleber
   
 * started run on 2026/08/28 at 19:10:05.625     
   ID    Z sym.   atoms
    1    6 C      1-13
    2    8 O      14, 15
    3    1 H      16-33

           -------------------------------------------------
          |                Calculation Setup                |
           -------------------------------------------------

          program call               : xtb in.xyz --gfn 2 --opt --norestart
          hostname                   : 756d39058c4f
          coordinate file            : in.xyz
          random seed                :              12175409


           -------------------------------------------------
          |                 G F N 2 - x T B                 |
           -------------------------------------------------

        Reference                      10.1021/acs.jctc.8b01176
      * Hamiltonian:
        H0-scaling (s, p, d)           1.850000    2.230000    2.230000
        zeta-weighting                 0.500000
      * Dispersion:
        s8                             2.700000
        a1                             0.520000
        a2                             5.000000
        s9                             5.000000
      * Repulsion:
        kExp                           1.500000    1.000000
        rExp                           1.000000
      * Coulomb:
        alpha                          2.000000
        third order                    shell-resolved
        anisotropic                    true
        a3                             3.000000
        a5                             4.000000
        cn-shift                       1.200000
        cn-exp                         4.000000
        max-rad                        5.000000


          ...................................................
          :                      SETUP                      :
          :.................................................:
          :  # basis functions                  78          :
          :  # atomic orbitals                  78          :
          :  # shells                           48          :
          :  # electrons                        82          :
          :  max. iterations                   250          :
          :  Hamiltonian                  GFN2-xTB          :
          :  restarted?                      false          :
          :  GBSA solvation                  false          :
          :  PC potential                    false          :
          :  electronic temp.          300.0000000     K    :
          :  accuracy                    1.0000000          :
          :  -> integral cutoff          0.2500000E+02      :
          :  -> integral neglect         0.1000000E-07      :
          :  -> SCF convergence          0.1000000E-05 Eh   :
          :  -> wf. convergence          0.1000000E-03 e    :
          :  Broyden damping             0.4000000          :
          :  net charge                          0          :
          :  unpaired electrons                  0          :
          ...................................................

 iter      E             dE          RMSdq      gap      omega  full diag
   1    -45.6998191 -0.456998E+02  0.369E+00    4.37       0.0  T
   2    -45.7699476 -0.701285E-01  0.204E+00    4.18       1.0  T
   3    -45.7717439 -0.179632E-02  0.107E+00    4.28       1.0  T
   4    -45.7783064 -0.656248E-02  0.204E-01    4.24       1.0  T
   5    -45.7788669 -0.560495E-03  0.842E-02    4.26       1.0  T
   6    -45.7789749 -0.108056E-03  0.479E-02    4.27       1.0  T
   7    -45.7790044 -0.294910E-04  0.142E-02    4.28       1.2  T
   8    -45.7790064 -0.202073E-05  0.518E-03    4.28       3.4  T
   9    -45.7790067 -0.225221E-06  0.252E-03    4.28       6.9  T
  10    -45.7790067 -0.353146E-07  0.104E-03    4.28      16.7  T
  11    -45.7790067 -0.990185E-08  0.451E-04    4.28      38.6  T
  12    -45.7790067 -0.100123E-08  0.214E-04    4.28      81.2  T

   *** convergence criteria satisfied after 12 iterations ***

         #    Occupation            Energy/Eh            Energy/eV
      -------------------------------------------------------------
         1        2.0000           -0.7393263             -20.1181
       ...           ...                  ...                  ...
        35        2.0000           -0.4459631             -12.1353
        36        2.0000           -0.4371139             -11.8945
        37        2.0000           -0.4312692             -11.7354
        38        2.0000           -0.4288612             -11.6699
        39        2.0000           -0.4147479             -11.2859
        40        2.0000           -0.4146731             -11.2838
        41        2.0000           -0.3989045             -10.8547 (HOMO)
        42                         -0.2417896              -6.5794 (LUMO)
        43                         -0.2386681              -6.4945
        44                         -0.2366562              -6.4397
        45                         -0.1165797              -3.1723
        46                          0.0415393               1.1303
       ...                                ...                  ...
        78                          0.6074818              16.5304
      -------------------------------------------------------------
                  HL-Gap            0.1571148 Eh            4.2753 eV
             Fermi-level           -0.3203470 Eh           -8.7171 eV

 SCC (total)                   0 d,  0 h,  0 min,  0.067 sec
 SCC setup                      ...        0 min,  0.000 sec (  0.367%)
 Dispersion                     ...        0 min,  0.000 sec (  0.453%)
 classical contributions        ...        0 min,  0.000 sec (  0.171%)
 integral evaluation            ...        0 min,  0.006 sec (  9.112%)
 iterations                     ...        0 min,  0.046 sec ( 68.337%)
 molecular gradient             ...        0 min,  0.014 sec ( 21.118%)
 printout                       ...        0 min,  0.000 sec (  0.414%)

         :::::::::::::::::::::::::::::::::::::::::::::::::::::
         ::                     SUMMARY                     ::
         :::::::::::::::::::::::::::::::::::::::::::::::::::::
         :: total energy             -45.158353426076 Eh    ::
         :: gradient norm              0.064165810890 Eh/a0 ::
         :: HOMO-LUMO gap              4.275312071371 eV    ::
         ::.................................................::
         :: SCC energy               -45.778866430090 Eh    ::
         :: -> isotropic ES            0.051833338325 Eh    ::
         :: -> anisotropic ES          0.008996835584 Eh    ::
         :: -> anisotropic XC          0.019978126233 Eh    ::
         :: -> dispersion             -0.029176182803 Eh    ::
         :: repulsion energy           0.620513004014 Eh    ::
         :: add. restraining           0.000000000000 Eh    ::
         :: total charge              -0.000000000000 e     ::
         :::::::::::::::::::::::::::::::::::::::::::::::::::::

      ----------------------------------------------------------- 
     |                   =====================                   |
     |                        A N C O P T                        |
     |                   =====================                   |
     |               Approximate Normal Coordinate               |
     |                Rational Function Optimizer                |
      ----------------------------------------------------------- 

          ...................................................
          :                      SETUP                      :
          :.................................................:
          :   optimization level            normal          :
          :   max. optcycles                   200          :
          :   ANC micro-cycles                  20          :
          :   degrees of freedom                93          :
          :.................................................:
          :   RF solver                   davidson          :
          :   write xtbopt.log                true          :
          :   linear?                        false          :
          :   energy convergence         0.5000000E-05 Eh   :
          :   grad. convergence          0.1000000E-02 Eh/α :
          :   maximum RF displ.          1.0000000          :
          :   Hlow (freq-cutoff)         0.1000000E-01      :
          :   Hmax (freq-cutoff)         5.0000000          :
          :   S6 in model hess.         20.0000000          :
          ...................................................

generating ANC from exact Hessian ...
Using Lindh-Hessian (1995)
 Shifting diagonal of input Hessian by    9.6348274507651824E-003
 Lowest  eigenvalues of input Hessian
    0.000000    0.000000    0.000000    0.000000    0.000000    0.000000
    0.010000    0.010377    0.010868    0.011688    0.012131    0.014101
    0.014561    0.016314    0.017124    0.018196    0.018552    0.019168
 Highest eigenvalues
    1.554005    1.665871    1.822926    1.894611    1.932780    2.207364


........................................................................
.............................. CYCLE    1 ..............................
........................................................................

 iter      E             dE          RMSdq      gap      omega  full diag
   1    -45.7790067 -0.457790E+02  0.704E-05    4.28       0.0  T
   2    -45.7790067 -0.213589E-10  0.426E-05    4.28     408.5  T
   3    -45.7790067 -0.438405E-11  0.272E-05    4.28     639.3  T
     SCC iter.                  ...        0 min,  0.010 sec
     gradient                   ...        0 min,  0.016 sec
 * total energy  :   -45.1583534 Eh     change       -0.5013590E-09 Eh
   gradient norm :     0.0641693 Eh/α   predicted     0.0000000E+00 (-100.00%)
   displ. norm   :     0.2211289 α      lambda       -0.6579208E-02
   maximum displ.:     0.0995153 α      in ANC's #7, #53, #18, ...

........................................................................
.............................. CYCLE    2 ..............................
........................................................................

 iter      E             dE          RMSdq      gap      omega  full diag
   1    -45.8165539 -0.458166E+02  0.154E-01    4.40       0.0  T
   2    -45.8166162 -0.623443E-04  0.923E-02    4.40       1.0  T
   3    -45.8166070  0.924807E-05  0.351E-02    4.41       1.0  T
   4    -45.8166229 -0.159026E-04  0.723E-03    4.41       2.4  T
   5    -45.8166243 -0.142876E-05  0.327E-03    4.41       5.3  T
   6    -45.8166245 -0.215049E-06  0.159E-03    4.41      11.0  T
   7    -45.8166245 -0.701571E-08  0.487E-04    4.41      35.8  T
   8    -45.8166245 -0.226908E-08  0.218E-04    4.41      79.9  T
     SCC iter.                  ...        0 min,  0.021 sec
     gradient                   ...        0 min,  0.008 sec
 * total energy  :   -45.1623454 Eh     change       -0.3991957E-02 Eh
   gradient norm :     0.0132208 Eh/α   predicted    -0.3452738E-02 ( -13.51%)
   displ. norm   :     0.1647800 α      lambda       -0.7663499E-03
   maximum displ.:     0.1045673 α      in ANC's #7, #6, #8, ...

........................................................................
.............................. CYCLE    3 ..............................
........................................................................

 iter      E             dE          RMSdq      gap      omega  full diag
   1    -45.8279175 -0.458279E+02  0.628E-02    4.41       0.0  T
   2    -45.8279229 -0.542277E-05  0.371E-02    4.42       1.0  T
   3    -45.8279200  0.292699E-05  0.118E-02    4.42       1.5  T
   4    -45.8279236 -0.359770E-05  0.290E-03    4.42       6.0  T
   5    -45.8279239 -0.296111E-06  0.920E-04    4.42      18.9  T
   6    -45.8279239 -0.106187E-07  0.472E-04    4.42      36.9  T
     SCC iter.                  ...        0 min,  0.018 sec
     gradient                   ...        0 min,  0.013 sec
 * total energy  :   -45.1628049 Eh     change       -0.4595279E-03 Eh
   gradient norm :     0.0055058 Eh/α   predicted    -0.3935811E-03 ( -14.35%)
   displ. norm   :     0.1573663 α      lambda       -0.2696213E-03
   maximum displ.:     0.1039381 α      in ANC's #7, #6, #4, ...

........................................................................
.............................. CYCLE    4 ..............................
........................................................................

 iter      E             dE          RMSdq      gap      omega  full diag
   1    -45.8300004 -0.458300E+02  0.554E-02    4.41       0.0  T
   2    -45.8300012 -0.772166E-06  0.330E-02    4.41       1.0  T
   3    -45.8299987  0.251122E-05  0.853E-03    4.41       2.0  T
   4    -45.8300016 -0.293239E-05  0.110E-03    4.41      15.8  T
   5    -45.8300016 -0.156538E-07  0.559E-04    4.41      31.2  T
   6    -45.8300016 -0.138458E-08  0.209E-04    4.41      83.1  T
     SCC iter.                  ...        0 min,  0.015 sec
     gradient                   ...        0 min,  0.008 sec
 * total energy  :   -45.1629641 Eh     change       -0.1592355E-03 Eh
   gradient norm :     0.0040589 Eh/α   predicted    -0.1381561E-03 ( -13.24%)
   displ. norm   :     0.1517262 α      lambda       -0.1605587E-03
   maximum displ.:     0.0788423 α      in ANC's #7, #6, #4, ...

........................................................................
.............................. CYCLE    5 ..............................
........................................................................

 iter      E             dE          RMSdq      gap      omega  full diag
   1    -45.8288206 -0.458288E+02  0.450E-02    4.39       0.0  T
   2    -45.8288212 -0.573149E-06  0.266E-02    4.40       1.0  T
   3    -45.8288190  0.221308E-05  0.792E-03    4.39       2.2  T
   4    -45.8288216 -0.262568E-05  0.102E-03    4.40      17.1  T
   5    -45.8288216 -0.109143E-07  0.592E-04    4.40      29.4  T
   6    -45.8288216 -0.170631E-08  0.181E-04    4.40      96.4  T
     SCC iter.                  ...        0 min,  0.015 sec
     gradient                   ...        0 min,  0.010 sec
 * total energy  :   -45.1630586 Eh     change       -0.9443921E-04 Eh
   gradient norm :     0.0030365 Eh/α   predicted    -0.8213304E-04 ( -13.03%)
   displ. norm   :     0.0967723 α      lambda       -0.6375081E-04
   maximum displ.:     0.0502436 α      in ANC's #6, #4, #1, ...

........................................................................
.............................. CYCLE    6 ..............................
........................................................................

 iter      E             dE          RMSdq      gap      omega  full diag
   1    -45.8272934 -0.458273E+02  0.263E-02    4.39       0.0  T
   2    -45.8272936 -0.112022E-06  0.155E-02    4.39       1.1  T
   3    -45.8272935  0.658996E-07  0.188E-03    4.39       9.3  T
   4    -45.8272936 -0.997119E-07  0.444E-04    4.39      39.2  T
   5    -45.8272936 -0.934882E-09  0.254E-04    4.39      68.6  T
     SCC iter.                  ...        0 min,  0.016 sec
     gradient                   ...        0 min,  0.008 sec
 * total energy  :   -45.1631068 Eh     change       -0.4821286E-04 Eh
   gradient norm :     0.0024566 Eh/α   predicted    -0.3217619E-04 ( -33.26%)
   displ. norm   :     0.1483676 α      lambda       -0.7467286E-04
   maximum displ.:     0.0710287 α      in ANC's #4, #6, #1, ...

........................................................................
.............................. CYCLE    7 ..............................
........................................................................

 iter      E             dE          RMSdq      gap      omega  full diag
   1    -45.8262304 -0.458262E+02  0.371E-02    4.40       0.0  T
   2    -45.8262305 -0.190017E-06  0.219E-02    4.40       1.0  T
   3    -45.8262305  0.793724E-07  0.220E-03    4.40       7.9  T
   4    -45.8262306 -0.129226E-06  0.701E-04    4.40      24.8  T
   5    -45.8262306 -0.546635E-08  0.348E-04    4.40      50.0  T
     SCC iter.                  ...        0 min,  0.017 sec
     gradient                   ...        0 min,  0.013 sec
 * total energy  :   -45.1631589 Eh     change       -0.5209740E-04 Eh
   gradient norm :     0.0024425 Eh/α   predicted    -0.3816258E-04 ( -26.75%)
   displ. norm   :     0.1359571 α      lambda       -0.5030548E-04
   maximum displ.:     0.0610153 α      in ANC's #4, #1, #6, ...

........................................................................
.............................. CYCLE    8 ..............................
........................................................................

 iter      E             dE          RMSdq      gap      omega  full diag
   1    -45.8264077 -0.458264E+02  0.354E-02    4.41       0.0  T
   2    -45.8264078 -0.133511E-06  0.208E-02    4.41       1.0  T
   3    -45.8264076  0.233620E-06  0.269E-03    4.41       6.5  T
   4    -45.8264079 -0.288781E-06  0.570E-04    4.41      30.6  T
   5    -45.8264079 -0.330955E-08  0.283E-04    4.41      61.5  T
     SCC iter.                  ...        0 min,  0.016 sec
     gradient                   ...        0 min,  0.022 sec
 * total energy  :   -45.1631972 Eh     change       -0.3834420E-04 Eh
   gradient norm :     0.0027355 Eh/α   predicted    -0.2561956E-04 ( -33.19%)
   displ. norm   :     0.1710108 α      lambda       -0.5825364E-04
   maximum displ.:     0.0810645 α      in ANC's #1, #4, #6, ...

........................................................................
.............................. CYCLE    9 ..............................
........................................................................

 iter      E             dE          RMSdq      gap      omega  full diag
   1    -45.8273059 -0.458273E+02  0.474E-02    4.41       0.0  T
   2    -45.8273061 -0.214182E-06  0.279E-02    4.41       1.0  T
   3    -45.8273056  0.516925E-06  0.382E-03    4.41       4.6  T
   4    -45.8273062 -0.622041E-06  0.676E-04    4.41      25.7  T
   5    -45.8273062 -0.360376E-08  0.354E-04    4.41      49.2  T
     SCC iter.                  ...        0 min,  0.014 sec
     gradient                   ...        0 min,  0.014 sec
 * total energy  :   -45.1632398 Eh     change       -0.4255554E-04 Eh
   gradient norm :     0.0023487 Eh/α   predicted    -0.2998190E-04 ( -29.55%)
   displ. norm   :     0.1514214 α      lambda       -0.4179278E-04
   maximum displ.:     0.0771423 α      in ANC's #1, #5, #4, ...

........................................................................
.............................. CYCLE   10 ..............................
........................................................................

 iter      E             dE          RMSdq      gap      omega  full diag
   1    -45.8281677 -0.458282E+02  0.445E-02    4.41       0.0  T
   2    -45.8281678 -0.171794E-06  0.262E-02    4.41       1.0  T
   3    -45.8281675  0.357946E-06  0.322E-03    4.41       5.4  T
   4    -45.8281679 -0.439246E-06  0.610E-04    4.41      28.6  T
   5    -45.8281679 -0.306664E-08  0.333E-04    4.41      52.3  T
     SCC iter.                  ...        0 min,  0.016 sec
     gradient                   ...        0 min,  0.016 sec
 * total energy  :   -45.1632701 Eh     change       -0.3033776E-04 Eh
   gradient norm :     0.0012813 Eh/α   predicted    -0.2137681E-04 ( -29.54%)
   displ. norm   :     0.1853563 α      lambda       -0.2586969E-04
   maximum displ.:     0.0990245 α      in ANC's #1, #5, #7, ...

........................................................................
.............................. CYCLE   11 ..............................
........................................................................

 iter      E             dE          RMSdq      gap      omega  full diag
   1    -45.8286685 -0.458287E+02  0.573E-02    4.41       0.0  T
   2    -45.8286688 -0.253763E-06  0.337E-02    4.41       1.0  T
   3    -45.8286683  0.445810E-06  0.370E-03    4.41       4.7  T
   4    -45.8286689 -0.565089E-06  0.755E-04    4.41      23.0  T
   5    -45.8286689 -0.430733E-08  0.418E-04    4.41      41.6  T
     SCC iter.                  ...        0 min,  0.014 sec
     gradient                   ...        0 min,  0.015 sec
 * total energy  :   -45.1632932 Eh     change       -0.2308921E-04 Eh
   gradient norm :     0.0013577 Eh/α   predicted    -0.1313644E-04 ( -43.11%)
   displ. norm   :     0.0712594 α      lambda       -0.1026518E-04
   maximum displ.:     0.0406309 α      in ANC's #5, #1, #2, ...

........................................................................
.............................. CYCLE   12 ..............................
........................................................................

 iter      E             dE          RMSdq      gap      omega  full diag
   1    -45.8286147 -0.458286E+02  0.226E-02    4.41       0.0  T
   2    -45.8286148 -0.492605E-07  0.133E-02    4.41       1.3  T
   3    -45.8286147  0.529762E-07  0.136E-03    4.41      12.8  T
   4    -45.8286148 -0.709180E-07  0.317E-04    4.41      54.9  T
   5    -45.8286148 -0.123914E-08  0.177E-04    4.41      98.1  T
     SCC iter.                  ...        0 min,  0.014 sec
     gradient                   ...        0 min,  0.019 sec
 * total energy  :   -45.1633059 Eh     change       -0.1265264E-04 Eh
   gradient norm :     0.0012100 Eh/α   predicted    -0.5146547E-05 ( -59.32%)
   displ. norm   :     0.1152546 α      lambda       -0.1559343E-04
   maximum displ.:     0.0607238 α      in ANC's #5, #1, #2, ...

........................................................................
.............................. CYCLE   13 ..............................
........................................................................

 iter      E             dE          RMSdq      gap      omega  full diag
   1    -45.8278762 -0.458279E+02  0.358E-02    4.41       0.0  T
   2    -45.8278764 -0.162349E-06  0.211E-02    4.41       1.0  T
   3    -45.8278762  0.163256E-06  0.250E-03    4.41       7.0  T
   4    -45.8278764 -0.222613E-06  0.567E-04    4.41      30.7  T
   5    -45.8278765 -0.331128E-08  0.337E-04    4.41      51.7  T
     SCC iter.                  ...        0 min,  0.013 sec
     gradient                   ...        0 min,  0.008 sec
 * total energy  :   -45.1633210 Eh     change       -0.1510153E-04 Eh
   gradient norm :     0.0010330 Eh/α   predicted    -0.7844954E-05 ( -48.05%)
   displ. norm   :     0.0881149 α      lambda       -0.8602105E-05
   maximum displ.:     0.0368329 α      in ANC's #1, #2, #5, ...

........................................................................
.............................. CYCLE   14 ..............................
........................................................................

 iter      E             dE          RMSdq      gap      omega  full diag
   1    -45.8285839 -0.458286E+02  0.224E-02    4.41       0.0  T
   2    -45.8285841 -0.189864E-06  0.133E-02    4.41       1.3  T
   3    -45.8285840  0.106226E-06  0.195E-03    4.41       8.9  T
   4    -45.8285842 -0.129995E-06  0.644E-04    4.41      27.0  T
   5    -45.8285842 -0.123050E-07  0.265E-04    4.41      65.7  T
     SCC iter.                  ...        0 min,  0.015 sec
     gradient                   ...        0 min,  0.019 sec
 * total energy  :   -45.1633249 Eh     change       -0.3887744E-05 Eh
   gradient norm :     0.0014530 Eh/α   predicted    -0.4316337E-05 (  11.02%)
   displ. norm   :     0.0474585 α      lambda       -0.5732102E-05
   maximum displ.:     0.0265584 α      in ANC's #1, #6, #2, ...

........................................................................
.............................. CYCLE   15 ..............................
........................................................................

 iter      E             dE          RMSdq      gap      omega  full diag
   1    -45.8280768 -0.458281E+02  0.148E-02    4.41       0.0  T
   2    -45.8280768 -0.717819E-07  0.865E-03    4.41       2.0  T
   3    -45.8280768  0.305328E-07  0.121E-03    4.41      14.4  T
   4    -45.8280768 -0.428283E-07  0.365E-04    4.41      47.7  T
   5    -45.8280769 -0.278233E-08  0.187E-04    4.41      93.2  T
     SCC iter.                  ...        0 min,  0.013 sec
     gradient                   ...        0 min,  0.015 sec
 * total energy  :   -45.1633306 Eh     change       -0.5706524E-05 Eh
   gradient norm :     0.0004924 Eh/α   predicted    -0.2870558E-05 ( -49.70%)
   displ. norm   :     0.0397817 α      lambda       -0.3326030E-05
   maximum displ.:     0.0226903 α      in ANC's #2, #1, #6, ...

........................................................................
.............................. CYCLE   16 ..............................
........................................................................

 iter      E             dE          RMSdq      gap      omega  full diag
   1    -45.8280811 -0.458281E+02  0.110E-02    4.41       0.0  T
   2    -45.8280811 -0.202202E-07  0.644E-03    4.41       2.7  T
   3    -45.8280811  0.258804E-07  0.935E-04    4.41      18.6  T
   4    -45.8280811 -0.340650E-07  0.215E-04    4.41      81.1  T
     SCC iter.                  ...        0 min,  0.011 sec
     gradient                   ...        0 min,  0.008 sec
 * total energy  :   -45.1633343 Eh     change       -0.3681940E-05 Eh
   gradient norm :     0.0005813 Eh/α   predicted    -0.1668053E-05 ( -54.70%)
   displ. norm   :     0.0460847 α      lambda       -0.3023048E-05
   maximum displ.:     0.0300029 α      in ANC's #2, #1, #4, ...

   *** GEOMETRY OPTIMIZATION CONVERGED AFTER 16 ITERATIONS ***

------------------------------------------------------------------------
 total energy gain   :        -0.0049808 Eh       -3.1255 kcal/mol
 total RMSD          :         0.2445796 a0        0.1294 Å
 total power (kW/mol):        -0.8173226 (step)  -23.7816 (real)
------------------------------------------------------------------------

 ANCopt (total)                0 d,  0 h,  0 min,  0.550 sec
 optimizer setup                ...        0 min,  0.000 sec (  0.046%)
 model hessian                  ...        0 min,  0.011 sec (  1.973%)
 ANC generation                 ...        0 min,  0.007 sec (  1.197%)
 coordinate transformation      ...        0 min,  0.001 sec (  0.171%)
 single point calculation       ...        0 min,  0.514 sec ( 93.387%)
 optimization log               ...        0 min,  0.001 sec (  0.224%)
 hessian update                 ...        0 min,  0.000 sec (  0.068%)
 rational function              ...        0 min,  0.002 sec (  0.424%)

================
 final structure:
================
33
 xtb: 6.7.1 (unknown)
C            2.95867127032319        1.42206158396478       -3.49437661225773
C            2.51520555094456        1.64198233131409       -2.05098195161629
C            0.99538681614803        1.55297990180333       -1.94181888724511
C            3.17145466954442        0.61283117747152       -1.11377524211610
C            4.66322058441151        0.76205979512114       -1.07316498292092
C            5.24429696188138        1.81305488423653       -0.37392270236334
C            6.61668879885021        1.97894016344970       -0.35190295897516
C            7.44696816755050        1.09046570856811       -1.02422478246596
C            6.86865117126002        0.03639083017175       -1.72404532248891
C            5.49589366756409       -0.12191900534422       -1.74869574016894
C            8.94774289280512        1.24414865257136       -0.99264492347715
C            9.60553712284119        0.16500107180877       -0.13170017222617
C            9.52858850604909        1.22878275818696       -2.40699478834009
O           10.53567044721564        0.66533937947634       -2.71868827360819
O            8.82869637974348        1.94681289463470       -3.30514649255354
H            2.50889927297127        2.16696130434954       -4.14702878280122
H            2.65264954083839        0.43640522839833       -3.83898655957188
H            4.04038593625793        1.49715135392015       -3.58204744270710
H            2.83176097626158        2.64345701597807       -1.73824243253015
H            0.65171469176505        0.56313979662969       -2.23504971938886
H            0.52362892235925        2.28549438229753       -2.59276994100843
H            0.66861691621905        1.74113767909391       -0.92137553503743
H            2.90746913784129       -0.39148221814285       -1.45040809720193
H            2.76842352941238        0.75131563752134       -0.10751882811909
H            4.61481176457319        2.50793611983639        0.16312030714575
H            7.04802988528365        2.80197732797043        0.20115016640895
H            7.50115779284067       -0.66056880303693       -2.25528987964071
H            5.06543083616521       -0.94597966212774       -2.29863488222501
H            9.20088410696538        2.22848954891243       -0.57541900573808
H            9.32579864227177       -0.82350220031092       -0.48666650784424
H            9.29093938050184        0.26721522428698        0.90401580913228
H           10.68701238606402        0.25543470495405       -0.19086202652611
H            8.01022327427513        2.29937543203453       -2.92572280952251

 Bond Distances (Angstroems)
 ---------------------------
C1-C2=1.5259         C1-H16=1.0877        C1-H17=1.0881        C1-H18=1.0879        C2-C1=1.5259         C2-C3=1.5263         
C2-C4=1.5389         C2-H19=1.0959        C3-C2=1.5263         C3-H20=1.0881        C3-H21=1.0876        C3-H22=1.0879        
C4-C2=1.5389         C4-C5=1.4998         C4-H23=1.0916        C4-H24=1.0928        C5-C4=1.4998         C5-C6=1.3897         
C5-C10=1.3896        C6-C5=1.3897         C6-C7=1.3826         C6-H25=1.0805        C7-C6=1.3826         C7-C8=1.3895         
C7-H26=1.0813        C8-C7=1.3895         C8-C9=1.3911         C8-C11=1.5090        C9-C8=1.3911         C9-C10=1.3821        
C9-H27=1.0808        C10-C5=1.3896        C10-C9=1.3821        C10-H28=1.0802       C11-C8=1.5090        C11-C12=1.5292       
C11-C13=1.5291       C11-H29=1.0987       C12-C11=1.5292       C12-H30=1.0869       C12-H31=1.0873       C12-H32=1.0869       
C13-C11=1.5291       C13-O14=1.1953       C13-O15=1.3461       O14-C13=1.1953       O15-C13=1.3461       O15-H33=0.9686       
H16-C1=1.0877        H17-C1=1.0881        H18-C1=1.0879        H19-C2=1.0959        H20-C3=1.0881        H21-C3=1.0876        
H22-C3=1.0879        H23-C4=1.0916        H24-C4=1.0928        H25-C6=1.0805        H26-C7=1.0813        H27-C9=1.0808        
H28-C10=1.0802       H29-C11=1.0987       H30-C12=1.0869       H31-C12=1.0873       H32-C12=1.0869       H33-O15=0.9686       
 C  H  Rav=1.0876 sigma=0.0050  Rmin=1.0802  Rmax=1.0987    17
 C  C  Rav=1.4602 sigma=0.0680  Rmin=1.3821  Rmax=1.5389    13
 O  H  Rav=0.9686 sigma=0.0000  Rmin=0.9686  Rmax=0.9686     1
 O  C  Rav=1.2707 sigma=0.0754  Rmin=1.1953  Rmax=1.3461     2

 selected bond angles (degree)
 --------------------
H16-C1-C2=110.41               H17-C1-C2=110.39               H17-C1-H16=108.30              H18-C1-C2=110.81               
H18-C1-H16=108.39              H18-C1-H17=108.46              C3-C2-C1=110.40                C4-C2-C1=110.84                
C4-C2-C3=110.00                H19-C2-C1=108.52               H19-C2-C3=108.69               H19-C2-C4=108.31               
H20-C3-C2=110.38               H21-C3-C2=110.48               H21-C3-H20=108.33              H22-C3-C2=110.86               
H22-C3-H20=108.38              H22-C3-H21=108.34              C5-C4-C2=111.97                H23-C4-C2=108.93               
H23-C4-C5=109.90               H24-C4-C2=108.59               H24-C4-C5=109.23               H24-C4-H23=108.14              
C6-C5-C4=120.32                C10-C5-C4=121.30               C10-C5-C6=118.37               C7-C6-C5=120.92                
H25-C6-C5=119.53               H25-C6-C7=119.55               C8-C7-C6=120.58                H26-C7-C6=119.70               
H26-C7-C8=119.72               C9-C8-C7=118.65                C11-C8-C7=121.27               C11-C8-C9=120.08               
C10-C9-C8=120.58               H27-C9-C8=119.51               H27-C9-C10=119.91              C9-C10-C5=120.91               
H28-C10-C5=119.60              H28-C10-C9=119.49              

 selected dihedral angles (degree)
 ---------------------------------
C3-C2-C1-H16= 59.15           C3-C2-C1-H17=299.43           C3-C2-C1-H18=179.25           C4-C2-C1-H16=181.30           
C4-C2-C1-H17= 61.58           C4-C2-C1-H18=301.40           H19-C2-C1-H16=300.12          H19-C2-C1-H17=180.40          
H19-C2-C1-H18= 60.22          H20-C3-C2-C1= 61.76           H20-C3-C2-C4=299.12           H20-C3-C2-H19=180.69          
H21-C3-C2-C1=301.98           H21-C3-C2-C4=179.34           H21-C3-C2-H19= 60.90          H22-C3-C2-C1=181.86           
H22-C3-C2-C4= 59.22           H22-C3-C2-H19=300.79          C5-C4-C2-C1= 63.83            C5-C4-C2-C3=186.21            
C5-C4-C2-H19=304.88           H23-C4-C2-C1=302.07           H23-C4-C2-C3= 64.45           H23-C4-C2-H19=183.12          
H24-C4-C2-C1=184.52           H24-C4-C2-C3=306.90           H24-C4-C2-H19= 65.57          C6-C5-C4-C2= 74.80            
C6-C5-C4-H23=196.00           C6-C5-C4-H24=314.49           C10-C5-C4-C2=256.09           C10-C5-C4-H23= 17.29          
C10-C5-C4-H24=135.78          C7-C6-C5-C4=181.39            C7-C6-C5-C10=  0.14           H25-C6-C5-C4=  1.63           
H25-C6-C5-C10=180.38          C8-C7-C6-C5=359.61            C8-C7-C6-H25=179.37           H26-C7-C6-C5=180.19           
H26-C7-C6-H25=359.95          C9-C8-C7-C6=  0.31            C9-C8-C7-H26=179.73           C11-C8-C7-C6=180.97           
C11-C8-C7-H26=  0.39          C10-C9-C8-C7=  0.00           C10-C9-C8-C11=179.35          H27-C9-C8-C7=179.75           
H27-C9-C8-C11=359.10          C9-C10-C5-C4=178.91           C9-C10-C5-C6=  0.17           H28-C10-C5-C4=358.74          
H28-C10-C5-C6=180.00          C5-C10-C9-C8=359.76           C5-C10-C9-H27=180.01          H28-C10-C9-C8=179.93          
H28-C10-C9-H27=  0.18         
           -------------------------------------------------
          |                Final Singlepoint                |
           -------------------------------------------------

          ...................................................
          :                      SETUP                      :
          :.................................................:
          :  # basis functions                  78          :
          :  # atomic orbitals                  78          :
          :  # shells                           48          :
          :  # electrons                        82          :
          :  max. iterations                   250          :
          :  Hamiltonian                  GFN2-xTB          :
          :  restarted?                      false          :
          :  GBSA solvation                  false          :
          :  PC potential                    false          :
          :  electronic temp.          300.0000000     K    :
          :  accuracy                    1.0000000          :
          :  -> integral cutoff          0.2500000E+02      :
          :  -> integral neglect         0.1000000E-07      :
          :  -> SCF convergence          0.1000000E-05 Eh   :
          :  -> wf. convergence          0.1000000E-03 e    :
          :  Broyden damping             0.4000000          :
          :  net charge                          0          :
          :  unpaired electrons                  0          :
          ...................................................

 iter      E             dE          RMSdq      gap      omega  full diag
   1    -45.8280811 -0.458281E+02  0.121E-04    4.41       0.0  T
   2    -45.8280811 -0.566160E-10  0.773E-05    4.41     225.2  T
   3    -45.8280811 -0.104237E-10  0.508E-05    4.41     342.8  T

   *** convergence criteria satisfied after 3 iterations ***

         #    Occupation            Energy/Eh            Energy/eV
      -------------------------------------------------------------
         1        2.0000           -0.7424511             -20.2031
       ...           ...                  ...                  ...
        35        2.0000           -0.4454031             -12.1200
        36        2.0000           -0.4359888             -11.8639
        37        2.0000           -0.4306991             -11.7199
        38        2.0000           -0.4293520             -11.6833
        39        2.0000           -0.4160635             -11.3217
        40        2.0000           -0.4149932             -11.2925
        41        2.0000           -0.3988323             -10.8528 (HOMO)
        42                         -0.2367848              -6.4432 (LUMO)
        43                         -0.2348502              -6.3906
        44                         -0.2300451              -6.2598
        45                         -0.1095450              -2.9809
        46                          0.0597777               1.6266
       ...                                ...                  ...
        78                          0.6612694              17.9941
      -------------------------------------------------------------
                  HL-Gap            0.1620475 Eh            4.4095 eV
             Fermi-level           -0.3178085 Eh           -8.6480 eV

 SCC (total)                   0 d,  0 h,  0 min,  0.028 sec
 SCC setup                      ...        0 min,  0.000 sec (  0.242%)
 Dispersion                     ...        0 min,  0.000 sec (  0.328%)
 classical contributions        ...        0 min,  0.000 sec (  0.100%)
 integral evaluation            ...        0 min,  0.002 sec (  8.597%)
 iterations                     ...        0 min,  0.010 sec ( 35.478%)
 molecular gradient             ...        0 min,  0.015 sec ( 54.263%)
 printout                       ...        0 min,  0.000 sec (  0.950%)

         :::::::::::::::::::::::::::::::::::::::::::::::::::::
         ::                     SUMMARY                     ::
         :::::::::::::::::::::::::::::::::::::::::::::::::::::
         :: total energy             -45.163334254030 Eh    ::
         :: gradient norm              0.000580988962 Eh/a0 ::
         :: HOMO-LUMO gap              4.409535745545 eV    ::
         ::.................................................::
         :: SCC energy               -45.827933805503 Eh    ::
         :: -> isotropic ES            0.051139466351 Eh    ::
         :: -> anisotropic ES          0.008206051128 Eh    ::
         :: -> anisotropic XC          0.018678000980 Eh    ::
         :: -> dispersion             -0.029714548134 Eh    ::
         :: repulsion energy           0.664599551473 Eh    ::
         :: add. restraining           0.000000000000 Eh    ::
         :: total charge              -0.000000000000 e     ::
         :::::::::::::::::::::::::::::::::::::::::::::::::::::

           -------------------------------------------------
          |                Property Printout                |
           -------------------------------------------------

    * Orbital Energies and Occupations

         #    Occupation            Energy/Eh            Energy/eV
      -------------------------------------------------------------
         1        2.0000           -0.7424511             -20.2031
       ...           ...                  ...                  ...
        29        2.0000           -0.4730545             -12.8725
        30        2.0000           -0.4690007             -12.7622
        31        2.0000           -0.4676805             -12.7262
        32        2.0000           -0.4601876             -12.5223
        33        2.0000           -0.4579647             -12.4619
        34        2.0000           -0.4475806             -12.1793
        35        2.0000           -0.4454031             -12.1200
        36        2.0000           -0.4359888             -11.8639
        37        2.0000           -0.4306991             -11.7199
        38        2.0000           -0.4293520             -11.6833
        39        2.0000           -0.4160635             -11.3217
        40        2.0000           -0.4149932             -11.2925
        41        2.0000           -0.3988323             -10.8528 (HOMO)
        42                         -0.2367848              -6.4432 (LUMO)
        43                         -0.2348502              -6.3906
        44                         -0.2300451              -6.2598
        45                         -0.1095450              -2.9809
        46                          0.0597777               1.6266
        47                          0.0718700               1.9557
        48                          0.0761939               2.0733
        49                          0.0848351               2.3085
        50                          0.0895727               2.4374
        51                          0.0998101               2.7160
        52                          0.1179212               3.2088
       ...                                ...                  ...
        78                          0.6612694              17.9941
      -------------------------------------------------------------
                  HL-Gap            0.1620475 Eh            4.4095 eV
             Fermi-level           -0.3178085 Eh           -8.6480 eV

     #   Z          covCN         q      C6AA      α(0)
     1   6          3.756    -0.106    22.578     6.775
     2   6          3.850    -0.005    20.641     6.462
     3   6          3.756    -0.107    22.600     6.778
     4   6          3.812    -0.069    21.812     6.648
     5   6          2.969     0.015    27.666     8.628
     6   6          2.924    -0.039    28.978     8.828
     7   6          2.921    -0.044    29.099     8.846
     8   6          2.974    -0.005    28.154     8.704
     9   6          2.922    -0.039    28.970     8.827
    10   6          2.924    -0.037    28.932     8.821
    11   6          3.856    -0.055    21.531     6.599
    12   6          3.756    -0.103    22.528     6.768
    13   6          2.691     0.357    20.947     7.490
    14   8          0.856    -0.365    20.988     6.142
    15   8          1.659    -0.376    20.395     6.097
    16   1          0.925     0.035     2.511     2.478
    17   1          0.925     0.037     2.483     2.464
    18   1          0.925     0.032     2.558     2.501
    19   1          0.924     0.028     2.616     2.529
    20   1          0.925     0.037     2.487     2.466
    21   1          0.925     0.037     2.486     2.466
    22   1          0.925     0.033     2.538     2.491
    23   1          0.924     0.040     2.443     2.444
    24   1          0.924     0.041     2.441     2.443
    25   1          0.926     0.033     2.539     2.492
    26   1          0.925     0.028     2.612     2.527
    27   1          0.926     0.036     2.508     2.476
    28   1          0.926     0.037     2.495     2.470
    29   1          0.923     0.054     2.269     2.355
    30   1          0.925     0.050     2.321     2.382
    31   1          0.925     0.043     2.410     2.428
    32   1          0.925     0.060     2.197     2.318
    33   1          0.805     0.318     0.669     1.285

 Mol. C6AA /au·bohr⁶  :      10235.326563
 Mol. C8AA /au·bohr⁸  :     234164.877562
 Mol. α(0) /au        :        155.428404


Wiberg/Mayer (AO) data.
largest (>0.10) Wiberg bond orders for each atom

 ---------------------------------------------------------------------------
     #   Z sym  total        # sym  WBO       # sym  WBO       # sym  WBO
 ---------------------------------------------------------------------------
     1   6      3.997 --     2      1.011    17      0.986    16      0.986
                            18      0.985
     2   6      3.995 --     1      1.011     3      1.009     4      0.976
                            19      0.969
     3   6      3.996 --     2      1.009    22      0.987    20      0.987
                            21      0.986
     4   6      3.996 --     5      1.016     2      0.976    23      0.974
                            24      0.967
     5   6      3.987 --     6      1.408    10      1.406     4      1.016
                             8      0.105
     6   6      3.992 --     7      1.449     5      1.408    25      0.969
                             9      0.109
     7   6      3.991 --     6      1.449     8      1.408    26      0.969
                            10      0.106
     8   6      3.987 --     7      1.408     9      1.402    11      0.991
                             5      0.105
     9   6      3.992 --    10      1.452     8      1.402    27      0.968
                             6      0.109
    10   6      3.991 --     9      1.452     5      1.406    28      0.968
                             7      0.106
    11   6      3.995 --    12      0.994     8      0.991    13      0.943
                            29      0.941
    12   6      3.991 --    11      0.994    31      0.987    30      0.985
                            32      0.982
    13   6      3.912 --    14      1.803    15      1.116    11      0.943
    14   8      2.081 --    13      1.803    15      0.161
    15   8      2.197 --    13      1.116    33      0.868    14      0.161
    16   1      0.999 --     1      0.986
    17   1      0.999 --     1      0.986
    18   1      0.999 --     1      0.985
    19   1      0.999 --     2      0.969
    20   1      0.999 --     3      0.987
    21   1      0.998 --     3      0.986
    22   1      0.999 --     3      0.987
    23   1      0.998 --     4      0.974
    24   1      0.998 --     4      0.967
    25   1      0.998 --     6      0.969
    26   1      0.999 --     7      0.969
    27   1      0.998 --     9      0.968
    28   1      0.998 --    10      0.968
    29   1      0.997 --    11      0.941
    30   1      0.998 --    12      0.985
    31   1      0.998 --    12      0.987
    32   1      0.995 --    12      0.982
    33   1      0.899 --    15      0.868
 ---------------------------------------------------------------------------

Topologies differ in total number of bonds
Writing topology from bond orders to xtbtopo.mol

molecular dipole:
                 x           y           z       tot (Debye)
 q only:       -1.507       0.369       0.802
   full:       -1.790       0.531       1.000       5.383
molecular quadrupole (traceless):
                xx          xy          yy          xz          yz          zz
 q only:      -43.387       4.811      29.075      32.459       0.291      14.312
  q+dip:      -52.674       9.120      37.480      39.028       4.094      15.194
   full:      -53.382       9.069      37.226      39.516       1.921      16.156

           -------------------------------------------------
          |                Geometry Summary                 |
           -------------------------------------------------

      molecular mass/u    :      206.2813100
   center of mass at/Å    :        6.2551866       1.0802636      -1.6773954
  moments of inertia/u·Å² :        0.3451744E+03   0.1897462E+04   0.2032870E+04
rotational constants/cm⁻¹ :        0.4883801E-01   0.8884304E-02   0.8292527E-02

 * 30 selected distances

     #   Z          #   Z                                           value/Å
     1   6          2   6                                         1.5259147
     2   6          3   6                                         1.5263314
     2   6          4   6                                         1.5388866 (max)
     5   6          6   6                                         1.3896692
     6   6          7   6                                         1.3825565
     7   6          8   6                                         1.3895207
     8   6          9   6                                         1.3911411
     5   6         10   6                                         1.3896421
     9   6         10   6                                         1.3820757
    11   6         12   6                                         1.5292086
    13   6         14   8                                         1.1953391
    13   6         15   8                                         1.3461401
     1   6         16   1                                         1.0877157
     1   6         17   1                                         1.0880827
     1   6         18   1                                         1.0878564
     2   6         19   1                                         1.0958855
     3   6         20   1                                         1.0880618
     3   6         21   1                                         1.0875985
     3   6         22   1                                         1.0878818
     4   6         23   1                                         1.0916298
     4   6         24   1                                         1.0927782
     6   6         25   1                                         1.0805216
     7   6         26   1                                         1.0813479
     9   6         27   1                                         1.0807582
    10   6         28   1                                         1.0801886
    11   6         29   1                                         1.0986743
    12   6         30   1                                         1.0869193
    12   6         31   1                                         1.0872568
    12   6         32   1                                         1.0868612
    15   8         33   1                                         0.9685872 (min)

 * 4 distinct bonds (by element types)

   Z      Z             #   av. dist./Å        max./Å        min./Å
Note: The following floating-point exceptions are signalling: IEEE_UNDERFLOW_FLAG
normal termination of xtb
   1 H    6 C          17     1.0876481     1.0986743     1.0801886
   6 C    6 C          10     1.4444946     1.5388866     1.3820757
   1 H    8 O           1     0.9685872     0.9685872     0.9685872
   6 C    8 O           2     1.2707396     1.3461401     1.1953391


optimized geometry written to: xtbopt.xyz


           -------------------------------------------------
          | TOTAL ENERGY              -45.163334254030 Eh   |
          | GRADIENT NORM               0.000580988962 Eh/α |
          | HOMO-LUMO GAP               4.409535745545 eV   |
           -------------------------------------------------

------------------------------------------------------------------------
 * finished run on 2026/08/28 at 19:10:06.328     
------------------------------------------------------------------------
 total:
 * wall-time:     0 d,  0 h,  0 min,  0.703 sec
 *  cpu-time:     0 d,  0 h,  0 min,  0.593 sec
 * ratio c/w:     0.843 speedup
 SCF:
 * wall-time:     0 d,  0 h,  0 min,  0.067 sec
 *  cpu-time:     0 d,  0 h,  0 min,  0.048 sec
 * ratio c/w:     0.723 speedup
 ANC optimizer:
 * wall-time:     0 d,  0 h,  0 min,  0.594 sec
 *  cpu-time:     0 d,  0 h,  0 min,  0.525 sec
 * ratio c/w:     0.883 speedup

