      -----------------------------------------------------------      
     |                   =====================                   |     
     |                           x T B                           |     
     |                   =====================                   |     
     |                         S. Grimme                         |     
     |          Mulliken Center for Theoretical Chemistry        |     
     |                    University of Bonn                     |     
      -----------------------------------------------------------      

   * xtb version 6.7.1 (unknown) compiled by 'root@buildkitsandbox' on 2026-08-28

   xtb is free software: you can redistribute it and/or modify it under
   the terms of the GNU Lesser General Public License as published by
   the Free Software Foundation, either version 3 of the License, or
   (at your option) any later version.
   
   xtb is distributed in the hope that it will be useful,
   but WITHOUT ANY WARRANTY; without even the implied warranty of
   MERCHANTABILITY or FITNESS FOR A PARTICULAR PURPOSE.  See the
   GNU Lesser General Public License for more details.
   
   Cite this work as:
   * C. Bannwarth, E. Caldeweyher, S. Ehlert, A. Hansen, P. Pracht,
     J. Seibert, S. Spicher, S. Grimme, WIREs Comput. Mol. Sci., 2020, 11,
     e01493. DOI: 10.1002/wcms.1493
   
   for GFN2-xTB:
   * C. Bannwarth, S. Ehlert and S. Grimme., J. Chem. Theory Comput., 2019,
     15, 1652-1671. DOI: 10.1021/acs.jctc.8b01176
   for GFN1-xTB:
   * S. Grimme, C. Bannwarth, P. Shushkov, J. Chem. Theory Comput., 2017,
     13, 1989-2009. DOI: 10.1021/acs.jctc.7b00118
   for GFN0-xTB:
   * P. Pracht, E. Caldeweyher, S. Ehlert, S. Grimme, ChemRxiv, 2019, preprint.
     DOI: 10.26434/chemrxiv.8326202.v1
   for GFN-FF:
   * S. Spicher and S. Grimme, Angew. Chem. Int. Ed., 2020, 59, 15665-15673.
     DOI: 10.1002/anie.202004239
   
   for ALPB and GBSA implicit solvation:
   * S. Ehlert, M. Stahn, S. Spicher, S. Grimme, J. Chem. Theory Comput.,
     2021, 17, 4250-4261. DOI: 10.1021/acs.jctc.1c00471
   
   for ddCOSMO and CPCM-X implicit solvation:
   * M. Stahn, S. Ehlert, S. Grimme, J. Phys. Chem. A,
     2023, XX, XXXX-XXXX. DOI: 10.1021/acs.jpca.3c04382
   
   for DFT-D4:
   * E. Caldeweyher, C. Bannwarth and S. Grimme, J. Chem. Phys., 2017,
     147, 034112. DOI: 10.1063/1.4993215
   * E. Caldeweyher, S. Ehlert, A. Hansen, H. Neugebauer, S. Spicher,
     C. Bannwarth and S. Grimme, J. Chem. Phys., 2019, 150, 154122.
     DOI: 10.1063/1.5090222
   * E. Caldeweyher, J.-M. Mewes, S. Ehlert and S. Grimme, Phys. Chem. Chem. Phys.
     2020, 22, 8499-8512. DOI: 10.1039/D0CP00502A
   
   for sTDA-xTB:
   * S. Grimme and C. Bannwarth, J. Chem. Phys., 2016, 145, 054103.
     DOI: 10.1063/1.4959605
   
   in the mass-spec context:
   * V. Asgeirsson, C. Bauer and S. Grimme, Chem. Sci., 2017, 8, 4879.
     DOI: 10.1039/c7sc00601b
   * J. Koopman and S. Grimme, ACS Omega 2019, 4, 12, 15120-15133.
     DOI: 10.1021/acsomega.9b02011
   
   for metadynamics refer to:
   * S. Grimme, J. Chem. Theory Comput., 2019, 155, 2847-2862
     DOI: 10.1021/acs.jctc.9b00143
   
   for SPH calculations refer to:
   * S. Spicher and S. Grimme, J. Chem. Theory Comput., 2021, 17, 1701-1714
     DOI: 10.1021/acs.jctc.0c01306
   
   for ONIOM refer to:
   * C. Plett, A. Katbashev, S. Ehlert, S. Grimme, M. Bursch,
     Phys. Chem. Chem. Phys., 2023, 25, 17860-17868. DOI: 10.1039/D3CP02178E
   
   for DIPRO refer to:
   * J. Kohn, N. Gildemeister, S. Grimme, D. Fazzi, A. Hansen,
     J. Chem. Phys. 159, 144106 (2023). DOI: 10.1063/5.0167484
   
   for PTB refer to:
   * S. Grimme, M. Mueller, A. Hansen, J. Chem. Phys., 2023, 158, 124111.
     DOI: 10.1063/5.0137838
   
   with help from (in alphabetical order)
   P. Atkinson, C. Bannwarth, F. Bohle, G. Brandenburg, E. Caldeweyher,
   M. Checinski, S. Dohm, S. Ehlert, S. Ehrlich, M. Friede, T. Froitzheim,
   I. Gerasimov, C. Hölzer, A. Katbashev, J. Kohn, J. Koopman, C. Lavigne,
   S. Lehtola, F. März, M. Müller, F. Musil, H. Neugebauer, J. Pisarek,
   C. Plett, P. Pracht, F. Pultar, J. Seibert, P. Shushkov, S. Spicher,
   M. Stahn, M. Steiner, T. Strunk, J. Stückrath, T. Rose, and J. Unsleber
   
 * started run on 2026/08/28 at 19:12:32.687     
   ID    Z sym.   atoms
    1    6 C      1-13
    2    8 O      14, 15
    3    1 H      16-33

           -------------------------------------------------
          |                Calculation Setup                |
           -------------------------------------------------

          program call               : xtb opt.xyz --gfn 2 --hess --norestart
          hostname                   : 756d39058c4f
          coordinate file            : opt.xyz
          random seed                :            1586195814


           -------------------------------------------------
          |                 G F N 2 - x T B                 |
           -------------------------------------------------

        Reference                      10.1021/acs.jctc.8b01176
      * Hamiltonian:
        H0-scaling (s, p, d)           1.850000    2.230000    2.230000
        zeta-weighting                 0.500000
      * Dispersion:
        s8                             2.700000
        a1                             0.520000
        a2                             5.000000
        s9                             5.000000
      * Repulsion:
        kExp                           1.500000    1.000000
        rExp                           1.000000
      * Coulomb:
        alpha                          2.000000
        third order                    shell-resolved
        anisotropic                    true
        a3                             3.000000
        a5                             4.000000
        cn-shift                       1.200000
        cn-exp                         4.000000
        max-rad                        5.000000


          ...................................................
          :                      SETUP                      :
          :.................................................:
          :  # basis functions                  78          :
          :  # atomic orbitals                  78          :
          :  # shells                           48          :
          :  # electrons                        82          :
          :  max. iterations                   250          :
          :  Hamiltonian                  GFN2-xTB          :
          :  restarted?                      false          :
          :  GBSA solvation                  false          :
          :  PC potential                    false          :
          :  electronic temp.          300.0000000     K    :
          :  accuracy                    1.0000000          :
          :  -> integral cutoff          0.2500000E+02      :
          :  -> integral neglect         0.1000000E-07      :
          :  -> SCF convergence          0.1000000E-05 Eh   :
          :  -> wf. convergence          0.1000000E-03 e    :
          :  Broyden damping             0.4000000          :
          :  net charge                          0          :
          :  unpaired electrons                  0          :
          ...................................................

 iter      E             dE          RMSdq      gap      omega  full diag
   1    -45.7527939 -0.457528E+02  0.359E+00    4.45       0.0  T
   2    -45.8208491 -0.680551E-01  0.198E+00    4.26       1.0  T
   3    -45.8227941 -0.194498E-02  0.990E-01    4.37       1.0  T
   4    -45.8275071 -0.471303E-02  0.193E-01    4.39       1.0  T
   5    -45.8279631 -0.456015E-03  0.796E-02    4.41       1.0  T
   6    -45.8280551 -0.920379E-04  0.445E-02    4.41       1.0  T
   7    -45.8280791 -0.239298E-04  0.130E-02    4.41       1.3  T
   8    -45.8280809 -0.179995E-05  0.503E-03    4.41       3.5  T
   9    -45.8280811 -0.212198E-06  0.234E-03    4.41       7.4  T
  10    -45.8280811 -0.295470E-07  0.906E-04    4.41      19.2  T
  11    -45.8280811 -0.697457E-08  0.416E-04    4.41      41.8  T

   *** convergence criteria satisfied after 11 iterations ***

         #    Occupation            Energy/Eh            Energy/eV
      -------------------------------------------------------------
         1        2.0000           -0.7424570             -20.2033
       ...           ...                  ...                  ...
        35        2.0000           -0.4454028             -12.1200
        36        2.0000           -0.4359884             -11.8638
        37        2.0000           -0.4306989             -11.7199
        38        2.0000           -0.4293514             -11.6832
        39        2.0000           -0.4160641             -11.3217
        40        2.0000           -0.4149961             -11.2926
        41        2.0000           -0.3988331             -10.8528 (HOMO)
        42                         -0.2367855              -6.4433 (LUMO)
        43                         -0.2348511              -6.3906
        44                         -0.2300492              -6.2600
        45                         -0.1095450              -2.9809
        46                          0.0597729               1.6265
       ...                                ...                  ...
        78                          0.6612660              17.9940
      -------------------------------------------------------------
                  HL-Gap            0.1620476 Eh            4.4095 eV
             Fermi-level           -0.3178093 Eh           -8.6480 eV

 SCC (total)                   0 d,  0 h,  0 min,  0.048 sec
 SCC setup                      ...        0 min,  0.000 sec (  0.326%)
 Dispersion                     ...        0 min,  0.001 sec (  1.706%)
 classical contributions        ...        0 min,  0.000 sec (  0.061%)
 integral evaluation            ...        0 min,  0.003 sec (  6.515%)
 iterations                     ...        0 min,  0.032 sec ( 66.252%)
 molecular gradient             ...        0 min,  0.012 sec ( 24.077%)
 printout                       ...        0 min,  0.000 sec (  1.029%)

         :::::::::::::::::::::::::::::::::::::::::::::::::::::
         ::                     SUMMARY                     ::
         :::::::::::::::::::::::::::::::::::::::::::::::::::::
         :: total energy             -45.163334252817 Eh    ::
         :: gradient norm              0.000572545371 Eh/a0 ::
         :: HOMO-LUMO gap              4.409540911159 eV    ::
         ::.................................................::
         :: SCC energy               -45.827933804289 Eh    ::
         :: -> isotropic ES            0.051144439514 Eh    ::
         :: -> anisotropic ES          0.008205239205 Eh    ::
         :: -> anisotropic XC          0.018678073221 Eh    ::
         :: -> dispersion             -0.029714511860 Eh    ::
         :: repulsion energy           0.664599551473 Eh    ::
         :: add. restraining           0.000000000000 Eh    ::
         :: total charge               0.000000000000 e     ::
         :::::::::::::::::::::::::::::::::::::::::::::::::::::

           ------------------------------------------------- 
          |                Numerical Hessian                |
           ------------------------------------------------- 
step length          :   0.00500
SCC accuracy         :   0.30000
Hessian scale factor :   1.00000
frozen atoms in %    :   0.00000    0
RMS gradient         :   0.00058
estimated CPU  time      0.08 min
estimated wall time      0.09 min

writing file <hessian>, containing the non-mass-weighted Hessian matrix in atomic units (Eₕ/Bohr²).

 projected vibrational frequencies (cm⁻¹)
eigval :       -0.00    -0.00    -0.00    -0.00     0.00     0.00
eigval :       25.63    33.76    40.11    53.33    61.33   103.70
eigval :      153.87   169.28   194.26   208.96   231.73   241.85
eigval :      288.37   324.16   342.42   374.31   376.32   403.66
eigval :      435.32   475.19   481.85   512.32   549.07   584.58
eigval :      612.24   680.48   692.81   779.14   806.67   848.81
eigval :      870.41   876.21   882.14   909.77   918.33   930.97
eigval :      949.16   983.09   990.16  1007.13  1031.00  1072.31
eigval :     1087.24  1093.96  1124.15  1145.71  1150.15  1181.81
eigval :     1184.06  1200.92  1209.71  1220.52  1238.28  1263.64
eigval :     1280.80  1284.66  1299.12  1328.78  1335.63  1343.06
eigval :     1405.95  1410.17  1419.30  1423.40  1479.91  1482.47
eigval :     1489.07  1497.97  1499.19  1500.04  1506.85  1509.77
eigval :     1581.42  1608.99  1803.75  2900.38  2927.82  2966.18
eigval :     2985.42  3026.11  3029.11  3032.16  3032.86  3038.19
eigval :     3039.86  3041.12  3048.76  3053.63  3065.49  3075.31
eigval :     3081.49  3087.22  3445.27
           -------------------------------------------------
          |                Property Printout                |
           -------------------------------------------------

    * Orbital Energies and Occupations

         #    Occupation            Energy/Eh            Energy/eV
      -------------------------------------------------------------
         1        2.0000           -0.7424520             -20.2031
       ...           ...                  ...                  ...
        29        2.0000           -0.4730555             -12.8725
        30        2.0000           -0.4690006             -12.7622
        31        2.0000           -0.4676806             -12.7262
        32        2.0000           -0.4601875             -12.5223
        33        2.0000           -0.4579647             -12.4619
        34        2.0000           -0.4475807             -12.1793
        35        2.0000           -0.4454030             -12.1200
        36        2.0000           -0.4359886             -11.8639
        37        2.0000           -0.4306990             -11.7199
        38        2.0000           -0.4293519             -11.6833
        39        2.0000           -0.4160636             -11.3217
        40        2.0000           -0.4149935             -11.2925
        41        2.0000           -0.3988325             -10.8528 (HOMO)
        42                         -0.2367850              -6.4432 (LUMO)
        43                         -0.2348504              -6.3906
        44                         -0.2300457              -6.2599
        45                         -0.1095451              -2.9809
        46                          0.0597766               1.6266
        47                          0.0718702               1.9557
        48                          0.0761934               2.0733
        49                          0.0848345               2.3085
        50                          0.0895729               2.4374
        51                          0.0998103               2.7160
        52                          0.1179211               3.2088
       ...                                ...                  ...
        78                          0.6612690              17.9940
      -------------------------------------------------------------
                  HL-Gap            0.1620474 Eh            4.4095 eV
             Fermi-level           -0.3178087 Eh           -8.6480 eV

     #   Z          covCN         q      C6AA      α(0)
     1   6          3.756    -0.106    22.578     6.775
     2   6          3.850    -0.005    20.641     6.462
     3   6          3.756    -0.107    22.600     6.778
     4   6          3.812    -0.069    21.812     6.648
     5   6          2.969     0.015    27.666     8.628
     6   6          2.924    -0.039    28.978     8.828
     7   6          2.921    -0.044    29.099     8.846
     8   6          2.974    -0.005    28.154     8.704
     9   6          2.922    -0.039    28.970     8.827
    10   6          2.924    -0.037    28.932     8.821
    11   6          3.856    -0.055    21.531     6.599
    12   6          3.756    -0.103    22.528     6.768
    13   6          2.691     0.357    20.947     7.490
    14   8          0.856    -0.365    20.988     6.142
    15   8          1.659    -0.376    20.395     6.097
    16   1          0.925     0.035     2.511     2.478
    17   1          0.925     0.037     2.483     2.464
    18   1          0.925     0.032     2.558     2.501
    19   1          0.924     0.028     2.616     2.529
    20   1          0.925     0.037     2.487     2.466
    21   1          0.925     0.037     2.486     2.466
    22   1          0.925     0.033     2.538     2.491
    23   1          0.924     0.040     2.443     2.444
    24   1          0.924     0.041     2.441     2.443
    25   1          0.926     0.033     2.539     2.492
    26   1          0.925     0.028     2.612     2.527
    27   1          0.926     0.036     2.508     2.476
    28   1          0.926     0.037     2.495     2.470
    29   1          0.923     0.054     2.269     2.355
    30   1          0.925     0.050     2.321     2.382
    31   1          0.925     0.043     2.410     2.428
    32   1          0.925     0.060     2.197     2.318
    33   1          0.805     0.318     0.669     1.285

 Mol. C6AA /au·bohr⁶  :      10235.325572
 Mol. C8AA /au·bohr⁸  :     234164.875152
 Mol. α(0) /au        :        155.428395


Wiberg/Mayer (AO) data.
largest (>0.10) Wiberg bond orders for each atom

 ---------------------------------------------------------------------------
     #   Z sym  total        # sym  WBO       # sym  WBO       # sym  WBO
 ---------------------------------------------------------------------------
     1   6      3.997 --     2      1.011    17      0.986    16      0.986
                            18      0.985
     2   6      3.995 --     1      1.011     3      1.009     4      0.976
                            19      0.969
     3   6      3.996 --     2      1.009    22      0.987    20      0.987
                            21      0.986
     4   6      3.996 --     5      1.016     2      0.976    23      0.974
                            24      0.967
     5   6      3.987 --     6      1.408    10      1.406     4      1.016
                             8      0.105
     6   6      3.992 --     7      1.449     5      1.408    25      0.969
                             9      0.109
     7   6      3.991 --     6      1.449     8      1.408    26      0.969
                            10      0.106
     8   6      3.987 --     7      1.408     9      1.402    11      0.991
                             5      0.105
     9   6      3.992 --    10      1.452     8      1.402    27      0.968
                             6      0.109
    10   6      3.991 --     9      1.452     5      1.406    28      0.968
                             7      0.106
    11   6      3.995 --    12      0.994     8      0.991    13      0.943
                            29      0.941
    12   6      3.991 --    11      0.994    31      0.987    30      0.985
                            32      0.982
    13   6      3.912 --    14      1.803    15      1.116    11      0.943
    14   8      2.081 --    13      1.803    15      0.161
    15   8      2.197 --    13      1.116    33      0.868    14      0.161
    16   1      0.999 --     1      0.986
    17   1      0.999 --     1      0.986
    18   1      0.999 --     1      0.985
    19   1      0.999 --     2      0.969
    20   1      0.999 --     3      0.987
    21   1      0.998 --     3      0.986
    22   1      0.999 --     3      0.987
    23   1      0.998 --     4      0.974
    24   1      0.998 --     4      0.967
    25   1      0.998 --     6      0.969
    26   1      0.999 --     7      0.969
    27   1      0.998 --     9      0.968
    28   1      0.998 --    10      0.968
    29   1      0.997 --    11      0.941
    30   1      0.998 --    12      0.985
    31   1      0.998 --    12      0.987
    32   1      0.995 --    12      0.982
    33   1      0.899 --    15      0.868
 ---------------------------------------------------------------------------

Topologies differ in total number of bonds
Writing topology from bond orders to xtbtopo.mol

molecular dipole:
                 x           y           z       tot (Debye)
 q only:       -1.507       0.369       0.802
   full:       -1.790       0.531       1.000       5.383
molecular quadrupole (traceless):
                xx          xy          yy          xz          yz          zz
 q only:      -43.388       4.811      29.075      32.459       0.291      14.313
  q+dip:      -52.674       9.120      37.481      39.029       4.094      15.194
   full:      -53.382       9.068      37.226      39.516       1.921      16.156

           -------------------------------------------------
          |               Frequency Printout                |
           -------------------------------------------------
 projected vibrational frequencies (cm⁻¹)
eigval :       -0.00    -0.00    -0.00    -0.00     0.00     0.00
eigval :       25.63    33.76    40.11    53.33    61.33   103.70
eigval :      153.87   169.28   194.26   208.96   231.73   241.85
eigval :      288.37   324.16   342.42   374.31   376.32   403.66
eigval :      435.32   475.19   481.85   512.32   549.07   584.58
eigval :      612.24   680.48   692.81   779.14   806.67   848.81
eigval :      870.41   876.21   882.14   909.77   918.33   930.97
eigval :      949.16   983.09   990.16  1007.13  1031.00  1072.31
eigval :     1087.24  1093.96  1124.15  1145.71  1150.15  1181.81
eigval :     1184.06  1200.92  1209.71  1220.52  1238.28  1263.64
eigval :     1280.80  1284.66  1299.12  1328.78  1335.63  1343.06
eigval :     1405.95  1410.17  1419.30  1423.40  1479.91  1482.47
eigval :     1489.07  1497.97  1499.19  1500.04  1506.85  1509.77
eigval :     1581.42  1608.99  1803.75  2900.38  2927.82  2966.18
eigval :     2985.42  3026.11  3029.11  3032.16  3032.86  3038.19
eigval :     3039.86  3041.12  3048.76  3053.63  3065.49  3075.31
eigval :     3081.49  3087.22  3445.27
 reduced masses (amu)
    1:      5.84    2:      6.44    3:      4.31    4:      4.68    5:      6.65    6:      4.91
    7:      3.83    8:      6.90    9:      3.44   10:      3.55   11:      3.15   12:      4.57
   13:      3.26   14:      1.08   15:      2.72   16:      1.15   17:      1.27   18:      2.40
   19:      3.12   20:      3.36   21:      3.29   22:      2.99   23:      3.18   24:      3.06
   25:      2.13   26:      2.74   27:      2.19   28:      1.81   29:      3.03   30:      5.01
   31:      6.69   32:      5.87   33:      6.03   34:      3.55   35:      1.64   36:      3.18
   37:      2.73   38:      1.28   39:      2.66   40:      1.46   41:      1.19   42:      1.35
   43:      1.18   44:      1.64   45:      1.55   46:      2.14   47:      1.69   48:      1.50
   49:      2.21   50:      1.39   51:      2.15   52:      1.83   53:      1.43   54:      1.49
   55:      1.67   56:      1.19   57:      1.86   58:      1.49   59:      1.85   60:      2.02
   61:      1.74   62:      1.42   63:      1.71   64:      3.79   65:      1.72   66:      1.55
   67:      1.22   68:      1.25   69:      3.14   70:      1.22   71:      1.11   72:      1.08
   73:      1.12   74:      1.06   75:      2.07   76:      1.20   77:      1.06   78:      1.06
   79:      8.17   80:      8.10   81:     12.14   82:      1.07   83:      1.07   84:      1.08
   85:      1.06   86:      1.09   87:      1.09   88:      1.09   89:      1.08   90:      1.03
   91:      1.04   92:      1.08   93:      1.09   94:      1.04   95:      1.08   96:      1.08
   97:      1.09   98:      1.09   99:      1.06
 IR intensities (km·mol⁻¹)
    1:      0.12    2:      0.17    3:      0.46    4:      0.61    5:      0.34    6:      0.40
    7:      1.27    8:     11.26    9:      0.17   10:      0.53   11:      0.17   12:      1.24
   13:      0.20   14:      0.16   15:      2.00   16:      0.70   17:      0.10   18:      3.83
   19:      4.05   20:      2.73   21:      0.66   22:      0.27   23:      2.30   24:      2.93
   25:      4.39   26:     31.10   27:     58.52   28:     40.74   29:      8.19   30:      0.73
   31:      0.51   32:     10.40   33:      1.44   34:      8.81   35:     15.64   36:     10.66
   37:      7.59   38:      0.69   39:      5.40   40:      1.36   41:      0.04   42:      0.04
   43:      2.94   44:      3.33   45:      0.39   46:      8.78   47:      1.57   48:     17.24
   49:      8.48   50:      5.24   51:      5.21   52:      3.64   53:      1.97   54:     38.25
   55:     36.44   56:     64.85   57:    331.26   58:      5.10   59:     29.41   60:     34.53
Refinement of some symmetry elements was terminated before convergence was reached.
Some symmetry elements may remain unidentified.
Molecule has no symmetry elements
It seems to be the C1 point group
   61:      5.35   62:      0.67   63:      3.90   64:      1.89   65:      5.32   66:     13.70
   67:      5.12   68:      4.18   69:      0.52   70:      2.64   71:      1.10   72:      2.40
   73:      2.97   74:      0.23   75:     20.50   76:      3.70   77:      2.09   78:      4.35
   79:      0.26   80:      1.39   81:    535.68   82:     21.20   83:     34.46   84:     32.49
   85:     28.99   86:      8.97   87:     17.66   88:     82.65   89:     36.70   90:     49.02
   91:     47.36   92:     24.35   93:     18.62   94:     11.37   95:     22.15   96:     13.84
   97:     59.06   98:     30.84   99:     54.48
 Raman intensities (Ä⁴*amu⁻¹)
    1:      0.00    2:      0.00    3:      0.00    4:      0.00    5:      0.00    6:      0.00
    7:      0.00    8:      0.00    9:      0.00   10:      0.00   11:      0.00   12:      0.00
   13:      0.00   14:      0.00   15:      0.00   16:      0.00   17:      0.00   18:      0.00
   19:      0.00   20:      0.00   21:      0.00   22:      0.00   23:      0.00   24:      0.00
   25:      0.00   26:      0.00   27:      0.00   28:      0.00   29:      0.00   30:      0.00
   31:      0.00   32:      0.00   33:      0.00   34:      0.00   35:      0.00   36:      0.00
   37:      0.00   38:      0.00   39:      0.00   40:      0.00   41:      0.00   42:      0.00
   43:      0.00   44:      0.00   45:      0.00   46:      0.00   47:      0.00   48:      0.00
   49:      0.00   50:      0.00   51:      0.00   52:      0.00   53:      0.00   54:      0.00
   55:      0.00   56:      0.00   57:      0.00   58:      0.00   59:      0.00   60:      0.00
   61:      0.00   62:      0.00   63:      0.00   64:      0.00   65:      0.00   66:      0.00
   67:      0.00   68:      0.00   69:      0.00   70:      0.00   71:      0.00   72:      0.00
   73:      0.00   74:      0.00   75:      0.00   76:      0.00   77:      0.00   78:      0.00
   79:      0.00   80:      0.00   81:      0.00   82:      0.00   83:      0.00   84:      0.00
   85:      0.00   86:      0.00   87:      0.00   88:      0.00   89:      0.00   90:      0.00
   91:      0.00   92:      0.00   93:      0.00   94:      0.00   95:      0.00   96:      0.00
   97:      0.00   98:      0.00   99:      0.00
 output can be read by thermo (or use thermo option).
 writing <g98.out> molden fake output.
 recommended (thermochemical) frequency scaling factor: 1.0
           -------------------------------------------------
          |             Thermodynamic Functions             |
           -------------------------------------------------

c1  symmetry found (for desy threshold:  0.10E+00) used in thermo

          ...................................................
          :                      SETUP                      :
          :.................................................:
          :  # frequencies                          93      :
          :  # imaginary freq.                       0      :
          :  linear?                             false      :
          :  only rotor calc.                    false      :
          :  symmetry                               c1      :
          :  rotational number                       1      :
          :  scaling factor                  1.0000000      :
          :  rotor cutoff                   50.0000000 cm⁻¹ :
          :  imag. cutoff                  -20.0000000 cm⁻¹ :
          :.................................................:

    mode    ω/cm⁻¹     T·S(HO)/kcal·mol⁻¹    T·S(FR)/kcal·mol⁻¹   T·S(vib)
   ------------------------------------------------------------------------
       1     25.63    -1.83117 (  6.46%)    -1.25438 ( 93.54%)    -1.29163
       2     33.76    -1.66823 ( 17.21%)    -1.17280 ( 82.79%)    -1.25805
       3     40.11    -1.56633 ( 29.29%)    -1.12173 ( 70.71%)    -1.25196
       4     53.33    -1.39829 ( 56.41%)    -1.03738 ( 43.59%)    -1.24098
       5     61.33    -1.31600 ( 69.36%)    -0.99598 ( 30.64%)    -1.21795
       6    103.70    -1.00881 ( 94.87%)    -0.84042 (  5.13%)    -1.00018
Note: The following floating-point exceptions are signalling: IEEE_UNDERFLOW_FLAG
normal termination of xtb
       7    153.87    -0.78231 ( 98.90%)    -0.72354 (  1.10%)    -0.78166
       8    169.28    -0.72853 ( 99.24%)    -0.69526 (  0.76%)    -0.72828
       9    194.26    -0.65199 ( 99.56%)    -0.65448 (  0.44%)    -0.65200
      10    208.96    -0.61202 ( 99.67%)    -0.63287 (  0.33%)    -0.61209
      11    231.73    -0.55619 ( 99.78%)    -0.60223 (  0.22%)    -0.55629
      12    241.85    -0.53346 ( 99.82%)    -0.58957 (  0.18%)    -0.53356
      13    288.37    -0.44230 ( 99.91%)    -0.53745 (  0.09%)    -0.44239
   ------------------------------------------------------------------------

   temp. (K)  partition function   enthalpy   heat capacity  entropy
                                   cal/mol     cal/K/mol   cal/K/mol   J/K/mol
 298.15  VIB  0.242E+07             8398.948     51.028     52.251
         ROT  0.279E+07              888.727      2.981     32.472
         INT  0.673E+13             9287.675     54.009     84.723
         TR   0.906E+26             1481.212      4.968     41.876
         TOT                       10768.8878    58.9768   126.5995   529.6924

       T/K    H(0)-H(T)+PV         H(T)/Eh          T*S/Eh         G(T)/Eh
   ------------------------------------------------------------------------
    298.15    0.171613E-01    0.295036E+00    0.601515E-01    0.234885E+00
   ------------------------------------------------------------------------

         :::::::::::::::::::::::::::::::::::::::::::::::::::::
         ::                  THERMODYNAMIC                  ::
         :::::::::::::::::::::::::::::::::::::::::::::::::::::
         :: total free energy         -44.928449401011 Eh   ::
         ::.................................................::
         :: total energy              -45.163334254031 Eh   ::
         :: zero point energy           0.277875054195 Eh   ::
         :: G(RRHO) w/o ZPVE           -0.042990201175 Eh   ::
         :: G(RRHO) contrib.            0.234884853020 Eh   ::
         :::::::::::::::::::::::::::::::::::::::::::::::::::::

           -------------------------------------------------
          | TOTAL ENERGY              -45.163334254031 Eh   |
          | TOTAL ENTHALPY            -44.868297884696 Eh   |
          | TOTAL FREE ENERGY         -44.928449401011 Eh   |
          | GRADIENT NORM               0.000579821648 Eh/α |
          | HOMO-LUMO GAP               4.409535450762 eV   |
           -------------------------------------------------

------------------------------------------------------------------------
 * finished run on 2026/08/28 at 19:12:38.803     
------------------------------------------------------------------------
 total:
 * wall-time:     0 d,  0 h,  0 min,  6.114 sec
 *  cpu-time:     0 d,  0 h,  0 min,  6.087 sec
 * ratio c/w:     0.996 speedup
 SCF:
 * wall-time:     0 d,  0 h,  0 min,  0.048 sec
 *  cpu-time:     0 d,  0 h,  0 min,  0.047 sec
 * ratio c/w:     0.967 speedup
 analytical hessian:
 * wall-time:     0 d,  0 h,  0 min,  6.029 sec
 *  cpu-time:     0 d,  0 h,  0 min,  6.008 sec
 * ratio c/w:     0.996 speedup

