      -----------------------------------------------------------      
     |                   =====================                   |     
     |                           x T B                           |     
     |                   =====================                   |     
     |                         S. Grimme                         |     
     |          Mulliken Center for Theoretical Chemistry        |     
     |                    University of Bonn                     |     
      -----------------------------------------------------------      

   * xtb version 6.7.1 (unknown) compiled by 'root@buildkitsandbox' on 2026-08-28

   xtb is free software: you can redistribute it and/or modify it under
   the terms of the GNU Lesser General Public License as published by
   the Free Software Foundation, either version 3 of the License, or
   (at your option) any later version.
   
   xtb is distributed in the hope that it will be useful,
   but WITHOUT ANY WARRANTY; without even the implied warranty of
   MERCHANTABILITY or FITNESS FOR A PARTICULAR PURPOSE.  See the
   GNU Lesser General Public License for more details.
   
   Cite this work as:
   * C. Bannwarth, E. Caldeweyher, S. Ehlert, A. Hansen, P. Pracht,
     J. Seibert, S. Spicher, S. Grimme, WIREs Comput. Mol. Sci., 2020, 11,
     e01493. DOI: 10.1002/wcms.1493
   
   for GFN2-xTB:
   * C. Bannwarth, S. Ehlert and S. Grimme., J. Chem. Theory Comput., 2019,
     15, 1652-1671. DOI: 10.1021/acs.jctc.8b01176
   for GFN1-xTB:
   * S. Grimme, C. Bannwarth, P. Shushkov, J. Chem. Theory Comput., 2017,
     13, 1989-2009. DOI: 10.1021/acs.jctc.7b00118
   for GFN0-xTB:
   * P. Pracht, E. Caldeweyher, S. Ehlert, S. Grimme, ChemRxiv, 2019, preprint.
     DOI: 10.26434/chemrxiv.8326202.v1
   for GFN-FF:
   * S. Spicher and S. Grimme, Angew. Chem. Int. Ed., 2020, 59, 15665-15673.
     DOI: 10.1002/anie.202004239
   
   for ALPB and GBSA implicit solvation:
   * S. Ehlert, M. Stahn, S. Spicher, S. Grimme, J. Chem. Theory Comput.,
     2021, 17, 4250-4261. DOI: 10.1021/acs.jctc.1c00471
   
   for ddCOSMO and CPCM-X implicit solvation:
   * M. Stahn, S. Ehlert, S. Grimme, J. Phys. Chem. A,
     2023, XX, XXXX-XXXX. DOI: 10.1021/acs.jpca.3c04382
   
   for DFT-D4:
   * E. Caldeweyher, C. Bannwarth and S. Grimme, J. Chem. Phys., 2017,
     147, 034112. DOI: 10.1063/1.4993215
   * E. Caldeweyher, S. Ehlert, A. Hansen, H. Neugebauer, S. Spicher,
     C. Bannwarth and S. Grimme, J. Chem. Phys., 2019, 150, 154122.
     DOI: 10.1063/1.5090222
   * E. Caldeweyher, J.-M. Mewes, S. Ehlert and S. Grimme, Phys. Chem. Chem. Phys.
     2020, 22, 8499-8512. DOI: 10.1039/D0CP00502A
   
   for sTDA-xTB:
   * S. Grimme and C. Bannwarth, J. Chem. Phys., 2016, 145, 054103.
     DOI: 10.1063/1.4959605
   
   in the mass-spec context:
   * V. Asgeirsson, C. Bauer and S. Grimme, Chem. Sci., 2017, 8, 4879.
     DOI: 10.1039/c7sc00601b
   * J. Koopman and S. Grimme, ACS Omega 2019, 4, 12, 15120-15133.
     DOI: 10.1021/acsomega.9b02011
   
   for metadynamics refer to:
   * S. Grimme, J. Chem. Theory Comput., 2019, 155, 2847-2862
     DOI: 10.1021/acs.jctc.9b00143
   
   for SPH calculations refer to:
   * S. Spicher and S. Grimme, J. Chem. Theory Comput., 2021, 17, 1701-1714
     DOI: 10.1021/acs.jctc.0c01306
   
   for ONIOM refer to:
   * C. Plett, A. Katbashev, S. Ehlert, S. Grimme, M. Bursch,
     Phys. Chem. Chem. Phys., 2023, 25, 17860-17868. DOI: 10.1039/D3CP02178E
   
   for DIPRO refer to:
   * J. Kohn, N. Gildemeister, S. Grimme, D. Fazzi, A. Hansen,
     J. Chem. Phys. 159, 144106 (2023). DOI: 10.1063/5.0167484
   
   for PTB refer to:
   * S. Grimme, M. Mueller, A. Hansen, J. Chem. Phys., 2023, 158, 124111.
     DOI: 10.1063/5.0137838
   
   with help from (in alphabetical order)
   P. Atkinson, C. Bannwarth, F. Bohle, G. Brandenburg, E. Caldeweyher,
   M. Checinski, S. Dohm, S. Ehlert, S. Ehrlich, M. Friede, T. Froitzheim,
   I. Gerasimov, C. Hölzer, A. Katbashev, J. Kohn, J. Koopman, C. Lavigne,
   S. Lehtola, F. März, M. Müller, F. Musil, H. Neugebauer, J. Pisarek,
   C. Plett, P. Pracht, F. Pultar, J. Seibert, P. Shushkov, S. Spicher,
   M. Stahn, M. Steiner, T. Strunk, J. Stückrath, T. Rose, and J. Unsleber
   
 * started run on 2026/08/28 at 19:10:00.451     
   ID    Z sym.   atoms
    1    6 C      1
    2    8 O      2
    3    1 H      3-6

           -------------------------------------------------
          |                Calculation Setup                |
           -------------------------------------------------

          program call               : xtb in.xyz --gfn 2 --opt --norestart
          hostname                   : 756d39058c4f
          coordinate file            : in.xyz
          random seed                :             982092811


           -------------------------------------------------
          |                 G F N 2 - x T B                 |
           -------------------------------------------------

        Reference                      10.1021/acs.jctc.8b01176
      * Hamiltonian:
        H0-scaling (s, p, d)           1.850000    2.230000    2.230000
        zeta-weighting                 0.500000
      * Dispersion:
        s8                             2.700000
        a1                             0.520000
        a2                             5.000000
        s9                             5.000000
      * Repulsion:
        kExp                           1.500000    1.000000
        rExp                           1.000000
      * Coulomb:
        alpha                          2.000000
        third order                    shell-resolved
        anisotropic                    true
        a3                             3.000000
        a5                             4.000000
        cn-shift                       1.200000
        cn-exp                         4.000000
        max-rad                        5.000000


          ...................................................
          :                      SETUP                      :
          :.................................................:
          :  # basis functions                  12          :
          :  # atomic orbitals                  12          :
          :  # shells                            8          :
          :  # electrons                        14          :
          :  max. iterations                   250          :
          :  Hamiltonian                  GFN2-xTB          :
          :  restarted?                      false          :
          :  GBSA solvation                  false          :
          :  PC potential                    false          :
          :  electronic temp.          300.0000000     K    :
          :  accuracy                    1.0000000          :
          :  -> integral cutoff          0.2500000E+02      :
          :  -> integral neglect         0.1000000E-07      :
          :  -> SCF convergence          0.1000000E-05 Eh   :
          :  -> wf. convergence          0.1000000E-03 e    :
          :  Broyden damping             0.4000000          :
          :  net charge                          0          :
          :  unpaired electrons                  0          :
          ...................................................

 iter      E             dE          RMSdq      gap      omega  full diag
   1     -8.2834465 -0.828345E+01  0.461E+00   13.07       0.0  T
   2     -8.2965830 -0.131365E-01  0.244E+00   12.68       1.0  T
   3     -8.2969252 -0.342155E-03  0.805E-01   12.72       1.0  T
   4     -8.2969846 -0.594014E-04  0.132E-01   12.74       1.0  T
   5     -8.2969885 -0.391516E-05  0.296E-02   12.76       1.4  T
   6     -8.2969895 -0.105318E-05  0.166E-02   12.76       2.5  T
   7     -8.2969900 -0.422024E-06  0.500E-03   12.76       8.2  T
   8     -8.2969900 -0.279110E-07  0.537E-04   12.76      76.0  T
   9     -8.2969900 -0.516101E-09  0.161E-04   12.76     253.4  T

   *** convergence criteria satisfied after 9 iterations ***

         #    Occupation            Energy/Eh            Energy/eV
      -------------------------------------------------------------
         1        2.0000           -0.6874816             -18.7073
         2        2.0000           -0.6165278             -16.7766
         3        2.0000           -0.5670767             -15.4309
         4        2.0000           -0.5247089             -14.2781
         5        2.0000           -0.5187219             -14.1151
         6        2.0000           -0.4584813             -12.4759
         7        2.0000           -0.4156158             -11.3095 (HOMO)
         8                          0.0532740               1.4497 (LUMO)
         9                          0.1260842               3.4309
        10                          0.1636663               4.4536
        11                          0.2030167               5.5244
        12                          0.2271315               6.1806
      -------------------------------------------------------------
                  HL-Gap            0.4688899 Eh           12.7591 eV
             Fermi-level           -0.1811709 Eh           -4.9299 eV

 SCC (total)                   0 d,  0 h,  0 min,  0.002 sec
 SCC setup                      ...        0 min,  0.000 sec (  2.052%)
 Dispersion                     ...        0 min,  0.000 sec (  0.497%)
 classical contributions        ...        0 min,  0.000 sec (  0.136%)
 integral evaluation            ...        0 min,  0.000 sec ( 14.411%)
 iterations                     ...        0 min,  0.001 sec ( 54.077%)
 molecular gradient             ...        0 min,  0.000 sec ( 13.433%)
 printout                       ...        0 min,  0.000 sec ( 14.868%)

         :::::::::::::::::::::::::::::::::::::::::::::::::::::
         ::                     SUMMARY                     ::
         :::::::::::::::::::::::::::::::::::::::::::::::::::::
         :: total energy              -8.225496190955 Eh    ::
         :: gradient norm              0.013710149706 Eh/a0 ::
         :: HOMO-LUMO gap             12.759142744814 eV    ::
         ::.................................................::
         :: SCC energy                -8.296989953796 Eh    ::
         :: -> isotropic ES            0.024692011943 Eh    ::
         :: -> anisotropic ES          0.001937608734 Eh    ::
         :: -> anisotropic XC          0.000445223243 Eh    ::
         :: -> dispersion             -0.001147696225 Eh    ::
         :: repulsion energy           0.071493762841 Eh    ::
         :: add. restraining           0.000000000000 Eh    ::
         :: total charge               0.000000000000 e     ::
         :::::::::::::::::::::::::::::::::::::::::::::::::::::

      ----------------------------------------------------------- 
     |                   =====================                   |
     |                        A N C O P T                        |
     |                   =====================                   |
     |               Approximate Normal Coordinate               |
     |                Rational Function Optimizer                |
      ----------------------------------------------------------- 

          ...................................................
          :                      SETUP                      :
          :.................................................:
          :   optimization level            normal          :
          :   max. optcycles                   200          :
          :   ANC micro-cycles                  20          :
          :   degrees of freedom                12          :
          :.................................................:
          :   RF solver                   davidson          :
          :   write xtbopt.log                true          :
          :   linear?                        false          :
          :   energy convergence         0.5000000E-05 Eh   :
          :   grad. convergence          0.1000000E-02 Eh/α :
          :   maximum RF displ.          1.0000000          :
          :   Hlow (freq-cutoff)         0.1000000E-01      :
          :   Hmax (freq-cutoff)         5.0000000          :
          :   S6 in model hess.         20.0000000          :
          ...................................................

generating ANC from exact Hessian ...
Using Lindh-Hessian (1995)
 Shifting diagonal of input Hessian by    0.0000000000000000     
 Lowest  eigenvalues of input Hessian
    0.000000    0.000000    0.000000    0.000000    0.000000    0.000000
    0.034612    0.068983    0.105332    0.111893    0.132116    0.140863
    0.229899    0.478887    1.099566    1.116148    1.234240    1.445962
 Highest eigenvalues
    0.229899    0.478887    1.099566    1.116148    1.234240    1.445962


........................................................................
.............................. CYCLE    1 ..............................
........................................................................

 iter      E             dE          RMSdq      gap      omega  full diag
   1     -8.2969900 -0.829699E+01  0.251E-05   12.76       0.0  T
   2     -8.2969900 -0.335731E-12  0.163E-05   12.76    2511.8  T
   3     -8.2969900 -0.143885E-12  0.514E-06   12.76    7945.9  T
     SCC iter.                  ...        0 min,  0.000 sec
     gradient                   ...        0 min,  0.000 sec
 * total energy  :    -8.2254962 Eh     change       -0.1046985E-09 Eh
   gradient norm :     0.0137104 Eh/α   predicted     0.0000000E+00 (-100.00%)
   displ. norm   :     0.1036395 α      lambda       -0.9307524E-03
   maximum displ.:     0.0983217 α      in ANC's #2, #7, #5, ...

........................................................................
.............................. CYCLE    2 ..............................
........................................................................

 iter      E             dE          RMSdq      gap      omega  full diag
   1     -8.2988216 -0.829882E+01  0.166E-01   12.96       0.0  T
   2     -8.2988226 -0.100002E-05  0.983E-02   12.96       1.0  T
   3     -8.2988232 -0.552406E-06  0.722E-03   12.96       5.7  T
   4     -8.2988232 -0.165845E-07  0.427E-03   12.96       9.6  T
   5     -8.2988232 -0.805701E-08  0.702E-04   12.96      58.2  T
   6     -8.2988232 -0.287079E-09  0.138E-04   12.96     295.9  T
     SCC iter.                  ...        0 min,  0.000 sec
     gradient                   ...        0 min,  0.000 sec
 * total energy  :    -8.2260467 Eh     change       -0.5504977E-03 Eh
   gradient norm :     0.0070567 Eh/α   predicted    -0.4703759E-03 ( -14.55%)
   displ. norm   :     0.0310543 α      lambda       -0.9966428E-04
   maximum displ.:     0.0280847 α      in ANC's #2, #3, #11, ...

........................................................................
.............................. CYCLE    3 ..............................
........................................................................

 iter      E             dE          RMSdq      gap      omega  full diag
   1     -8.2994084 -0.829941E+01  0.470E-02   13.06       0.0  T
   2     -8.2994089 -0.476457E-06  0.268E-02   13.05       1.5  T
   3     -8.2994090 -0.553882E-07  0.496E-03   13.06       8.2  T
   4     -8.2994090 -0.706803E-08  0.146E-03   13.06      28.0  T
   5     -8.2994090 -0.576829E-09  0.294E-04   13.06     139.0  T
   6     -8.2994090 -0.447002E-10  0.632E-05   13.06     645.6  T
     SCC iter.                  ...        0 min,  0.000 sec
     gradient                   ...        0 min,  0.000 sec
 * total energy  :    -8.2261083 Eh     change       -0.6159513E-04 Eh
   gradient norm :     0.0030730 Eh/α   predicted    -0.4988049E-04 ( -19.02%)
   displ. norm   :     0.0093523 α      lambda       -0.1599556E-04
   maximum displ.:     0.0070595 α      in ANC's #2, #7, #8, ...

........................................................................
.............................. CYCLE    4 ..............................
........................................................................

 iter      E             dE          RMSdq      gap      omega  full diag
   1     -8.2995102 -0.829951E+01  0.158E-02   13.09       0.0  T
   2     -8.2995104 -0.212426E-06  0.853E-03   13.09       4.8  T
   3     -8.2995104 -0.873100E-08  0.372E-03   13.09      11.0  T
   4     -8.2995104 -0.221281E-08  0.445E-04   13.09      91.8  T
   5     -8.2995104 -0.862119E-10  0.170E-04   13.09     239.9  T
     SCC iter.                  ...        0 min,  0.000 sec
     gradient                   ...        0 min,  0.000 sec
 * total energy  :    -8.2261177 Eh     change       -0.9397112E-05 Eh
   gradient norm :     0.0008675 Eh/α   predicted    -0.7998434E-05 ( -14.88%)
   displ. norm   :     0.0033370 α      lambda       -0.1238877E-05
   maximum displ.:     0.0024007 α      in ANC's #3, #7, #12, ...

........................................................................
.............................. CYCLE    5 ..............................
........................................................................

 iter      E             dE          RMSdq      gap      omega  full diag
   1     -8.2994319 -0.829943E+01  0.817E-03   13.10       0.0  T
   2     -8.2994319 -0.369988E-07  0.458E-03   13.10       8.9  T
   3     -8.2994319 -0.158283E-08  0.151E-03   13.10      27.1  T
   4     -8.2994319 -0.358140E-09  0.221E-04   13.10     185.1  T
   5     -8.2994319 -0.375771E-10  0.108E-04   13.10     378.0  T
     SCC iter.                  ...        0 min,  0.000 sec
     gradient                   ...        0 min,  0.000 sec
 * total energy  :    -8.2261183 Eh     change       -0.6521838E-06 Eh
   gradient norm :     0.0002484 Eh/α   predicted    -0.6205890E-06 (  -4.84%)
   displ. norm   :     0.0011340 α      lambda       -0.1317498E-06
   maximum displ.:     0.0006690 α      in ANC's #7, #2, #3, ...

   *** GEOMETRY OPTIMIZATION CONVERGED AFTER 5 ITERATIONS ***

------------------------------------------------------------------------
 total energy gain   :        -0.0006221 Eh       -0.3904 kcal/mol
 total RMSD          :         0.0565243 a0        0.0299 Å
 total power (kW/mol):        -0.3266869 (step) -507.6850 (real)
------------------------------------------------------------------------

 ANCopt (total)                0 d,  0 h,  0 min,  0.003 sec
 optimizer setup                ...        0 min,  0.000 sec (  5.035%)
 model hessian                  ...        0 min,  0.000 sec (  2.217%)
 ANC generation                 ...        0 min,  0.000 sec (  1.387%)
 coordinate transformation      ...        0 min,  0.000 sec (  0.233%)
 single point calculation       ...        0 min,  0.003 sec ( 80.861%)
 optimization log               ...        0 min,  0.000 sec (  3.001%)
 hessian update                 ...        0 min,  0.000 sec (  0.195%)
 rational function              ...        0 min,  0.000 sec (  4.070%)

================
 final structure:
================
6
 xtb: 6.7.1 (unknown)
C            1.02387182080702       -0.04172074913136        0.07485032416905
O            2.42974987179291       -0.03370428246239        0.10258593454573
H            0.62878289146730       -1.03688837581071       -0.15677456381594
H            0.62878060834199        0.67651328210010       -0.65188680131980
H            0.69284165472995        0.24610507427120        1.07091148682008
H            2.76346315286083       -0.28443494896683       -0.76510638039912

 Bond Distances (Angstroems)
 ---------------------------
C1-O2=1.4062         C1-H3=1.0955         C1-H4=1.0955         C1-H5=1.0884         O2-C1=1.4062         O2-H6=0.9629         
H3-C1=1.0955         H4-C1=1.0955         H5-C1=1.0884         H6-O2=0.9629         
 C  H  Rav=1.0931 sigma=0.0034  Rmin=1.0884  Rmax=1.0955     3
 O  H  Rav=0.9629 sigma=0.0000  Rmin=0.9629  Rmax=0.9629     1
 O  C  Rav=1.4062 sigma=0.0000  Rmin=1.4062  Rmax=1.4062     1

 selected bond angles (degree)
 --------------------
H3-C1-O2=111.71                H4-C1-O2=111.71                H4-C1-H3=108.98                H5-C1-O2=106.53                
H5-C1-H3=108.91                H5-C1-H4=108.91                H6-O2-C1=109.10                

 selected dihedral angles (degree)
 ---------------------------------
H6-O2-C1-H3= 61.18            H6-O2-C1-H4=298.82            H6-O2-C1-H5=180.00            
           -------------------------------------------------
          |                Final Singlepoint                |
           -------------------------------------------------

          ...................................................
          :                      SETUP                      :
          :.................................................:
          :  # basis functions                  12          :
          :  # atomic orbitals                  12          :
          :  # shells                            8          :
          :  # electrons                        14          :
          :  max. iterations                   250          :
          :  Hamiltonian                  GFN2-xTB          :
          :  restarted?                      false          :
          :  GBSA solvation                  false          :
          :  PC potential                    false          :
          :  electronic temp.          300.0000000     K    :
          :  accuracy                    1.0000000          :
          :  -> integral cutoff          0.2500000E+02      :
          :  -> integral neglect         0.1000000E-07      :
          :  -> SCF convergence          0.1000000E-05 Eh   :
          :  -> wf. convergence          0.1000000E-03 e    :
          :  Broyden damping             0.4000000          :
          :  net charge                          0          :
          :  unpaired electrons                  0          :
          ...................................................

 iter      E             dE          RMSdq      gap      omega  full diag
   1     -8.2994319 -0.829943E+01  0.104E-05   13.10       0.0  T
   2     -8.2994319 -0.195399E-13  0.625E-06   13.10    6534.7  T
   3     -8.2994319 -0.888178E-14  0.916E-07   13.10   44571.9  T

   *** convergence criteria satisfied after 3 iterations ***

         #    Occupation            Energy/Eh            Energy/eV
      -------------------------------------------------------------
         1        2.0000           -0.6888750             -18.7452
         2        2.0000           -0.6182566             -16.8236
         3        2.0000           -0.5675752             -15.4445
         4        2.0000           -0.5244386             -14.2707
         5        2.0000           -0.5192497             -14.1295
         6        2.0000           -0.4570743             -12.4376
         7        2.0000           -0.4158100             -11.3148 (HOMO)
         8                          0.0656445               1.7863 (LUMO)
         9                          0.1286971               3.5020
        10                          0.1696892               4.6175
        11                          0.1969495               5.3593
        12                          0.2445820               6.6554
      -------------------------------------------------------------
                  HL-Gap            0.4814546 Eh           13.1010 eV
             Fermi-level           -0.1750827 Eh           -4.7642 eV

 SCC (total)                   0 d,  0 h,  0 min,  0.000 sec
 SCC setup                      ...        0 min,  0.000 sec (  4.411%)
 Dispersion                     ...        0 min,  0.000 sec (  0.872%)
 classical contributions        ...        0 min,  0.000 sec (  0.311%)
 integral evaluation            ...        0 min,  0.000 sec ( 20.419%)
 iterations                     ...        0 min,  0.000 sec ( 22.805%)
 molecular gradient             ...        0 min,  0.000 sec ( 45.309%)
 printout                       ...        0 min,  0.000 sec (  5.012%)

         :::::::::::::::::::::::::::::::::::::::::::::::::::::
         ::                     SUMMARY                     ::
         :::::::::::::::::::::::::::::::::::::::::::::::::::::
         :: total energy              -8.226118333231 Eh    ::
         :: gradient norm              0.000247908112 Eh/a0 ::
         :: HOMO-LUMO gap             13.101045347401 eV    ::
         ::.................................................::
         :: SCC energy                -8.299431912573 Eh    ::
         :: -> isotropic ES            0.024129116480 Eh    ::
         :: -> anisotropic ES          0.002035327586 Eh    ::
         :: -> anisotropic XC          0.000270115067 Eh    ::
         :: -> dispersion             -0.001150732838 Eh    ::
         :: repulsion energy           0.073313579342 Eh    ::
         :: add. restraining           0.000000000000 Eh    ::
         :: total charge               0.000000000000 e     ::
         :::::::::::::::::::::::::::::::::::::::::::::::::::::

           -------------------------------------------------
          |                Property Printout                |
           -------------------------------------------------

    * Orbital Energies and Occupations

         #    Occupation            Energy/Eh            Energy/eV
      -------------------------------------------------------------
         1        2.0000           -0.6888750             -18.7452
         2        2.0000           -0.6182566             -16.8236
         3        2.0000           -0.5675752             -15.4445
         4        2.0000           -0.5244386             -14.2707
         5        2.0000           -0.5192497             -14.1295
         6        2.0000           -0.4570743             -12.4376
         7        2.0000           -0.4158100             -11.3148 (HOMO)
         8                          0.0656445               1.7863 (LUMO)
         9                          0.1286971               3.5020
        10                          0.1696892               4.6175
        11                          0.1969495               5.3593
        12                          0.2445820               6.6554
      -------------------------------------------------------------
                  HL-Gap            0.4814546 Eh           13.1010 eV
             Fermi-level           -0.1750827 Eh           -4.7642 eV

     #   Z          covCN         q      C6AA      α(0)
     1   6          3.623     0.041    20.312     6.496
     2   8          1.655    -0.435    21.535     6.264
     3   1          0.924     0.025     2.652     2.547
     4   1          0.924     0.025     2.652     2.547
     5   1          0.925     0.056     2.242     2.342
     6   1          0.805     0.286     0.765     1.374

 Mol. C6AA /au·bohr⁶  :        216.956231
 Mol. C8AA /au·bohr⁸  :       4156.458877
 Mol. α(0) /au        :         21.569029


Wiberg/Mayer (AO) data.
largest (>0.10) Wiberg bond orders for each atom

 ---------------------------------------------------------------------------
     #   Z sym  total        # sym  WBO       # sym  WBO       # sym  WBO
 ---------------------------------------------------------------------------
     1   6      3.956 --     2      1.010     5      0.983     4      0.981
                             3      0.981
     2   8      1.956 --     1      1.010     6      0.907
     3   1      0.999 --     1      0.981
     4   1      0.999 --     1      0.981
     5   1      0.997 --     1      0.983
     6   1      0.918 --     2      0.907
 ---------------------------------------------------------------------------

Topologies differ in total number of bonds
Writing topology from bond orders to xtbtopo.mol
normal termination of xtb

molecular dipole:
                 x           y           z       tot (Debye)
 q only:       -0.288      -0.120      -0.417
   full:       -0.370      -0.182      -0.630       1.915
molecular quadrupole (traceless):
                xx          xy          yy          xz          yz          zz
 q only:       -1.586      -1.002       0.327      -3.648       0.382       1.259
  q+dip:       -3.459      -1.441       1.158      -5.216       0.494       2.300
   full:       -2.810      -1.462       0.720      -5.291       0.566       2.090

           -------------------------------------------------
          |                Geometry Summary                 |
           -------------------------------------------------

      molecular mass/u    :       32.0419038
   center of mass at/Å    :        1.7453180      -0.0450103       0.0634629
  moments of inertia/u·Å² :        0.3948066E+01   0.2004320E+02   0.2078512E+02
rotational constants/cm⁻¹ :        0.4269846E+01   0.8410649E+00   0.8110431E+00

 * 5 selected distances

     #   Z          #   Z                                           value/Å
     1   6          2   8                                         1.4061746 (max)
     1   6          3   1                                         1.0954927
     1   6          4   1                                         1.0954927
     1   6          5   1                                         1.0883762
     2   8          6   1                                         0.9628710 (min)

 * 3 distinct bonds (by element types)

   Z      Z             #   av. dist./Å        max./Å        min./Å
   1 H    6 C           3     1.0931205     1.0954927     1.0883762
   1 H    8 O           1     0.9628710     0.9628710     0.9628710
   6 C    8 O           1     1.4061746     1.4061746     1.4061746


optimized geometry written to: xtbopt.xyz


           -------------------------------------------------
          | TOTAL ENERGY               -8.226118333231 Eh   |
          | GRADIENT NORM               0.000247908112 Eh/α |
          | HOMO-LUMO GAP              13.101045347401 eV   |
           -------------------------------------------------

------------------------------------------------------------------------
 * finished run on 2026/08/28 at 19:10:00.471     
------------------------------------------------------------------------
 total:
 * wall-time:     0 d,  0 h,  0 min,  0.020 sec
 *  cpu-time:     0 d,  0 h,  0 min,  0.014 sec
 * ratio c/w:     0.719 speedup
 SCF:
 * wall-time:     0 d,  0 h,  0 min,  0.002 sec
 *  cpu-time:     0 d,  0 h,  0 min,  0.001 sec
 * ratio c/w:     0.888 speedup
 ANC optimizer:
 * wall-time:     0 d,  0 h,  0 min,  0.004 sec
 *  cpu-time:     0 d,  0 h,  0 min,  0.004 sec
 * ratio c/w:     0.909 speedup

