      -----------------------------------------------------------      
     |                   =====================                   |     
     |                           x T B                           |     
     |                   =====================                   |     
     |                         S. Grimme                         |     
     |          Mulliken Center for Theoretical Chemistry        |     
     |                    University of Bonn                     |     
      -----------------------------------------------------------      

   * xtb version 6.7.1 (unknown) compiled by 'root@buildkitsandbox' on 2026-08-28

   xtb is free software: you can redistribute it and/or modify it under
   the terms of the GNU Lesser General Public License as published by
   the Free Software Foundation, either version 3 of the License, or
   (at your option) any later version.
   
   xtb is distributed in the hope that it will be useful,
   but WITHOUT ANY WARRANTY; without even the implied warranty of
   MERCHANTABILITY or FITNESS FOR A PARTICULAR PURPOSE.  See the
   GNU Lesser General Public License for more details.
   
   Cite this work as:
   * C. Bannwarth, E. Caldeweyher, S. Ehlert, A. Hansen, P. Pracht,
     J. Seibert, S. Spicher, S. Grimme, WIREs Comput. Mol. Sci., 2020, 11,
     e01493. DOI: 10.1002/wcms.1493
   
   for GFN2-xTB:
   * C. Bannwarth, S. Ehlert and S. Grimme., J. Chem. Theory Comput., 2019,
     15, 1652-1671. DOI: 10.1021/acs.jctc.8b01176
   for GFN1-xTB:
   * S. Grimme, C. Bannwarth, P. Shushkov, J. Chem. Theory Comput., 2017,
     13, 1989-2009. DOI: 10.1021/acs.jctc.7b00118
   for GFN0-xTB:
   * P. Pracht, E. Caldeweyher, S. Ehlert, S. Grimme, ChemRxiv, 2019, preprint.
     DOI: 10.26434/chemrxiv.8326202.v1
   for GFN-FF:
   * S. Spicher and S. Grimme, Angew. Chem. Int. Ed., 2020, 59, 15665-15673.
     DOI: 10.1002/anie.202004239
   
   for ALPB and GBSA implicit solvation:
   * S. Ehlert, M. Stahn, S. Spicher, S. Grimme, J. Chem. Theory Comput.,
     2021, 17, 4250-4261. DOI: 10.1021/acs.jctc.1c00471
   
   for ddCOSMO and CPCM-X implicit solvation:
   * M. Stahn, S. Ehlert, S. Grimme, J. Phys. Chem. A,
     2023, XX, XXXX-XXXX. DOI: 10.1021/acs.jpca.3c04382
   
   for DFT-D4:
   * E. Caldeweyher, C. Bannwarth and S. Grimme, J. Chem. Phys., 2017,
     147, 034112. DOI: 10.1063/1.4993215
   * E. Caldeweyher, S. Ehlert, A. Hansen, H. Neugebauer, S. Spicher,
     C. Bannwarth and S. Grimme, J. Chem. Phys., 2019, 150, 154122.
     DOI: 10.1063/1.5090222
   * E. Caldeweyher, J.-M. Mewes, S. Ehlert and S. Grimme, Phys. Chem. Chem. Phys.
     2020, 22, 8499-8512. DOI: 10.1039/D0CP00502A
   
   for sTDA-xTB:
   * S. Grimme and C. Bannwarth, J. Chem. Phys., 2016, 145, 054103.
     DOI: 10.1063/1.4959605
   
   in the mass-spec context:
   * V. Asgeirsson, C. Bauer and S. Grimme, Chem. Sci., 2017, 8, 4879.
     DOI: 10.1039/c7sc00601b
   * J. Koopman and S. Grimme, ACS Omega 2019, 4, 12, 15120-15133.
     DOI: 10.1021/acsomega.9b02011
   
   for metadynamics refer to:
   * S. Grimme, J. Chem. Theory Comput., 2019, 155, 2847-2862
     DOI: 10.1021/acs.jctc.9b00143
   
   for SPH calculations refer to:
   * S. Spicher and S. Grimme, J. Chem. Theory Comput., 2021, 17, 1701-1714
     DOI: 10.1021/acs.jctc.0c01306
   
   for ONIOM refer to:
   * C. Plett, A. Katbashev, S. Ehlert, S. Grimme, M. Bursch,
     Phys. Chem. Chem. Phys., 2023, 25, 17860-17868. DOI: 10.1039/D3CP02178E
   
   for DIPRO refer to:
   * J. Kohn, N. Gildemeister, S. Grimme, D. Fazzi, A. Hansen,
     J. Chem. Phys. 159, 144106 (2023). DOI: 10.1063/5.0167484
   
   for PTB refer to:
   * S. Grimme, M. Mueller, A. Hansen, J. Chem. Phys., 2023, 158, 124111.
     DOI: 10.1063/5.0137838
   
   with help from (in alphabetical order)
   P. Atkinson, C. Bannwarth, F. Bohle, G. Brandenburg, E. Caldeweyher,
   M. Checinski, S. Dohm, S. Ehlert, S. Ehrlich, M. Friede, T. Froitzheim,
   I. Gerasimov, C. Hölzer, A. Katbashev, J. Kohn, J. Koopman, C. Lavigne,
   S. Lehtola, F. März, M. Müller, F. Musil, H. Neugebauer, J. Pisarek,
   C. Plett, P. Pracht, F. Pultar, J. Seibert, P. Shushkov, S. Spicher,
   M. Stahn, M. Steiner, T. Strunk, J. Stückrath, T. Rose, and J. Unsleber
   
 * started run on 2026/08/28 at 19:11:54.684     
   ID    Z sym.   atoms
    1    6 C      1
    2    8 O      2
    3    1 H      3-6

           -------------------------------------------------
          |                Calculation Setup                |
           -------------------------------------------------

          program call               : xtb opt.xyz --gfn 2 --hess --norestart
          hostname                   : 756d39058c4f
          coordinate file            : opt.xyz
          random seed                :            1670883182


           -------------------------------------------------
          |                 G F N 2 - x T B                 |
           -------------------------------------------------

        Reference                      10.1021/acs.jctc.8b01176
      * Hamiltonian:
        H0-scaling (s, p, d)           1.850000    2.230000    2.230000
        zeta-weighting                 0.500000
      * Dispersion:
        s8                             2.700000
        a1                             0.520000
        a2                             5.000000
        s9                             5.000000
      * Repulsion:
        kExp                           1.500000    1.000000
        rExp                           1.000000
      * Coulomb:
        alpha                          2.000000
        third order                    shell-resolved
        anisotropic                    true
        a3                             3.000000
        a5                             4.000000
        cn-shift                       1.200000
        cn-exp                         4.000000
        max-rad                        5.000000


          ...................................................
          :                      SETUP                      :
          :.................................................:
          :  # basis functions                  12          :
          :  # atomic orbitals                  12          :
          :  # shells                            8          :
          :  # electrons                        14          :
          :  max. iterations                   250          :
          :  Hamiltonian                  GFN2-xTB          :
          :  restarted?                      false          :
          :  GBSA solvation                  false          :
          :  PC potential                    false          :
          :  electronic temp.          300.0000000     K    :
          :  accuracy                    1.0000000          :
          :  -> integral cutoff          0.2500000E+02      :
          :  -> integral neglect         0.1000000E-07      :
          :  -> SCF convergence          0.1000000E-05 Eh   :
          :  -> wf. convergence          0.1000000E-03 e    :
          :  Broyden damping             0.4000000          :
          :  net charge                          0          :
          :  unpaired electrons                  0          :
          ...................................................

 iter      E             dE          RMSdq      gap      omega  full diag
   1     -8.2863468 -0.828635E+01  0.456E+00   13.40       0.0  T
   2     -8.2990391 -0.126922E-01  0.244E+00   13.02       1.0  T
   3     -8.2993722 -0.333156E-03  0.795E-01   13.07       1.0  T
   4     -8.2994272 -0.549657E-04  0.130E-01   13.08       1.0  T
   5     -8.2994305 -0.334528E-05  0.275E-02   13.11       1.5  T
   6     -8.2994316 -0.108529E-05  0.158E-02   13.10       2.6  T
   7     -8.2994319 -0.315674E-06  0.478E-03   13.10       8.5  T
   8     -8.2994319 -0.247959E-07  0.509E-04   13.10      80.2  T
   9     -8.2994319 -0.472316E-09  0.131E-04   13.10     311.0  T

   *** convergence criteria satisfied after 9 iterations ***

         #    Occupation            Energy/Eh            Energy/eV
      -------------------------------------------------------------
         1        2.0000           -0.6888767             -18.7453
         2        2.0000           -0.6182566             -16.8236
         3        2.0000           -0.5675761             -15.4445
         4        2.0000           -0.5244385             -14.2707
         5        2.0000           -0.5192500             -14.1295
         6        2.0000           -0.4570741             -12.4376
         7        2.0000           -0.4158116             -11.3148 (HOMO)
         8                          0.0656441               1.7863 (LUMO)
         9                          0.1286979               3.5020
        10                          0.1696900               4.6175
        11                          0.1969512               5.3593
        12                          0.2445820               6.6554
      -------------------------------------------------------------
                  HL-Gap            0.4814558 Eh           13.1011 eV
             Fermi-level           -0.1750838 Eh           -4.7643 eV

 SCC (total)                   0 d,  0 h,  0 min,  0.001 sec
 SCC setup                      ...        0 min,  0.000 sec (  3.278%)
 Dispersion                     ...        0 min,  0.000 sec (  0.773%)
 classical contributions        ...        0 min,  0.000 sec (  0.207%)
 integral evaluation            ...        0 min,  0.000 sec (  8.764%)
 iterations                     ...        0 min,  0.001 sec ( 45.700%)
 molecular gradient             ...        0 min,  0.000 sec ( 18.149%)
 printout                       ...        0 min,  0.000 sec ( 22.763%)

         :::::::::::::::::::::::::::::::::::::::::::::::::::::
         ::                     SUMMARY                     ::
         :::::::::::::::::::::::::::::::::::::::::::::::::::::
         :: total energy              -8.226118333162 Eh    ::
         :: gradient norm              0.000248346939 Eh/a0 ::
         :: HOMO-LUMO gap             13.101077842546 eV    ::
         ::.................................................::
         :: SCC energy                -8.299431912504 Eh    ::
         :: -> isotropic ES            0.024130238842 Eh    ::
         :: -> anisotropic ES          0.002035440039 Eh    ::
         :: -> anisotropic XC          0.000270215623 Eh    ::
         :: -> dispersion             -0.001150736032 Eh    ::
         :: repulsion energy           0.073313579342 Eh    ::
         :: add. restraining           0.000000000000 Eh    ::
         :: total charge               0.000000000000 e     ::
         :::::::::::::::::::::::::::::::::::::::::::::::::::::

           ------------------------------------------------- 
          |                Numerical Hessian                |
           ------------------------------------------------- 
step length          :   0.00500
SCC accuracy         :   0.30000
Hessian scale factor :   1.00000
frozen atoms in %    :   0.00000    0
RMS gradient         :   0.00025
estimated CPU  time      0.00 min
estimated wall time      0.00 min

writing file <hessian>, containing the non-mass-weighted Hessian matrix in atomic units (Eₕ/Bohr²).

 projected vibrational frequencies (cm⁻¹)
eigval :       -0.00    -0.00    -0.00     0.00     0.00     0.00
eigval :      373.51  1031.03  1091.01  1140.17  1314.35  1416.48
eigval :     1485.07  1489.75  2918.23  2937.63  3033.87  3558.10
           -------------------------------------------------
          |                Property Printout                |
           -------------------------------------------------

    * Orbital Energies and Occupations

         #    Occupation            Energy/Eh            Energy/eV
      -------------------------------------------------------------
         1        2.0000           -0.6888750             -18.7452
         2        2.0000           -0.6182566             -16.8236
         3        2.0000           -0.5675752             -15.4445
         4        2.0000           -0.5244386             -14.2707
         5        2.0000           -0.5192497             -14.1295
         6        2.0000           -0.4570743             -12.4376
         7        2.0000           -0.4158100             -11.3148 (HOMO)
         8                          0.0656446               1.7863 (LUMO)
         9                          0.1286971               3.5020
        10                          0.1696892               4.6175
        11                          0.1969495               5.3593
        12                          0.2445821               6.6554
      -------------------------------------------------------------
                  HL-Gap            0.4814546 Eh           13.1010 eV
             Fermi-level           -0.1750827 Eh           -4.7642 eV

     #   Z          covCN         q      C6AA      α(0)
     1   6          3.623     0.041    20.312     6.496
     2   8          1.655    -0.435    21.535     6.264
     3   1          0.924     0.025     2.652     2.547
     4   1          0.924     0.025     2.652     2.547
     5   1          0.925     0.056     2.242     2.342
     6   1          0.805     0.286     0.765     1.374

 Mol. C6AA /au·bohr⁶  :        216.956219
 Mol. C8AA /au·bohr⁸  :       4156.458710
 Mol. α(0) /au        :         21.569029


Wiberg/Mayer (AO) data.
largest (>0.10) Wiberg bond orders for each atom

 ---------------------------------------------------------------------------
     #   Z sym  total        # sym  WBO       # sym  WBO       # sym  WBO
 ---------------------------------------------------------------------------
     1   6      3.956 --     2      1.010     5      0.983     4      0.981
                             3      0.981
     2   8      1.956 --     1      1.010     6      0.907
     3   1      0.999 --     1      0.981
     4   1      0.999 --     1      0.981
     5   1      0.997 --     1      0.983
     6   1      0.918 --     2      0.907
 ---------------------------------------------------------------------------

Topologies differ in total number of bonds
Writing topology from bond orders to xtbtopo.mol

molecular dipole:
                 x           y           z       tot (Debye)
 q only:       -0.288      -0.120      -0.417
   full:       -0.370      -0.182      -0.630       1.915
molecular quadrupole (traceless):
                xx          xy          yy          xz          yz          zz
 q only:       -1.586      -1.002       0.327      -3.648       0.382       1.259
  q+dip:       -3.459      -1.441       1.158      -5.216       0.494       2.300
   full:       -2.810      -1.462       0.720      -5.291       0.566       2.090

           -------------------------------------------------
          |               Frequency Printout                |
           -------------------------------------------------
 projected vibrational frequencies (cm⁻¹)
eigval :       -0.00    -0.00    -0.00     0.00     0.00     0.00
eigval :      373.51  1031.03  1091.01  1140.17  1314.35  1416.48
eigval :     1485.07  1489.75  2918.23  2937.63  3033.87  3558.10
 reduced masses (amu)
    1:      2.96    2:      3.19    3:      4.83    4:      1.26    5:      2.62    6:      3.99
    7:      1.08    8:      1.30    9:      3.63   10:      1.27   11:      1.30   12:      1.13
   13:      1.05   14:      1.05   15:      1.09   16:      1.05   17:      1.07   18:      1.07
 IR intensities (km·mol⁻¹)
    1:      2.68    2:      1.77    3:      0.26    4:     29.89    5:      0.44    6:      5.09
    7:    152.06    8:     86.16    9:     25.69   10:      2.87   11:     68.07   12:      3.35
   13:      4.60   14:      1.38   15:     68.08   16:     54.82   17:     17.50   18:      7.84
 Raman intensities (Ä⁴*amu⁻¹)
    1:      0.00    2:      0.00    3:      0.00    4:      0.00    5:      0.00    6:      0.00
    7:      0.00    8:      0.00    9:      0.00   10:      0.00   11:      0.00   12:      0.00
   13:      0.00   14:      0.00   15:      0.00   16:      0.00   17:      0.00   18:      0.00
 output can be read by thermo (or use thermo option).
 writing <g98.out> molden fake output.
 recommended (thermochemical) frequency scaling factor: 1.0
           -------------------------------------------------
          |             Thermodynamic Functions             |
Refinement of some symmetry elements was terminated before convergence was reached.
Some symmetry elements may remain unidentified.
Molecule has the following symmetry elements: (sigma) 
It seems to be the Cs point group
normal termination of xtb
           -------------------------------------------------

cs  symmetry found (for desy threshold:  0.10E+00) used in thermo

          ...................................................
          :                      SETUP                      :
          :.................................................:
          :  # frequencies                          12      :
          :  # imaginary freq.                       0      :
          :  linear?                             false      :
          :  only rotor calc.                    false      :
          :  symmetry                               cs      :
          :  rotational number                       1      :
          :  scaling factor                  1.0000000      :
          :  rotor cutoff                   50.0000000 cm⁻¹ :
          :  imag. cutoff                  -20.0000000 cm⁻¹ :
          :.................................................:

    mode    ω/cm⁻¹     T·S(HO)/kcal·mol⁻¹    T·S(FR)/kcal·mol⁻¹   T·S(vib)
   ------------------------------------------------------------------------
   ------------------------------------------------------------------------

   temp. (K)  partition function   enthalpy   heat capacity  entropy
                                   cal/mol     cal/K/mol   cal/K/mol   J/K/mol
 298.15  VIB   1.22                  278.423      2.804      1.333
         ROT  0.310E+04              888.727      2.981     18.955
         INT  0.379E+04             1167.151      5.785     20.288
         TR   0.555E+25             1481.212      4.968     36.325
         TOT                        2648.3632    10.7532    56.6135   236.8707

       T/K    H(0)-H(T)+PV         H(T)/Eh          T*S/Eh         G(T)/Eh
   ------------------------------------------------------------------------
    298.15    0.422044E-02    0.538599E-01    0.268989E-01    0.269610E-01
   ------------------------------------------------------------------------

         :::::::::::::::::::::::::::::::::::::::::::::::::::::
         ::                  THERMODYNAMIC                  ::
         :::::::::::::::::::::::::::::::::::::::::::::::::::::
         :: total free energy          -8.199157332931 Eh   ::
         ::.................................................::
         :: total energy               -8.226118333231 Eh   ::
         :: zero point energy           0.049639443706 Eh   ::
         :: G(RRHO) w/o ZPVE           -0.022678443405 Eh   ::
         :: G(RRHO) contrib.            0.026961000301 Eh   ::
         :::::::::::::::::::::::::::::::::::::::::::::::::::::

           -------------------------------------------------
          | TOTAL ENERGY               -8.226118333231 Eh   |
          | TOTAL ENTHALPY             -8.172258454104 Eh   |
          | TOTAL FREE ENERGY          -8.199157332931 Eh   |
          | GRADIENT NORM               0.000247908735 Eh/α |
          | HOMO-LUMO GAP              13.101045474662 eV   |
           -------------------------------------------------

------------------------------------------------------------------------
 * finished run on 2026/08/28 at 19:11:54.717     
------------------------------------------------------------------------
 total:
 * wall-time:     0 d,  0 h,  0 min,  0.033 sec
 *  cpu-time:     0 d,  0 h,  0 min,  0.026 sec
 * ratio c/w:     0.802 speedup
 SCF:
 * wall-time:     0 d,  0 h,  0 min,  0.001 sec
 *  cpu-time:     0 d,  0 h,  0 min,  0.001 sec
 * ratio c/w:     0.827 speedup
 analytical hessian:
 * wall-time:     0 d,  0 h,  0 min,  0.025 sec
 *  cpu-time:     0 d,  0 h,  0 min,  0.019 sec
 * ratio c/w:     0.776 speedup

