      -----------------------------------------------------------      
     |                   =====================                   |     
     |                           x T B                           |     
     |                   =====================                   |     
     |                         S. Grimme                         |     
     |          Mulliken Center for Theoretical Chemistry        |     
     |                    University of Bonn                     |     
      -----------------------------------------------------------      

   * xtb version 6.7.1 (unknown) compiled by 'root@buildkitsandbox' on 2026-08-28

   xtb is free software: you can redistribute it and/or modify it under
   the terms of the GNU Lesser General Public License as published by
   the Free Software Foundation, either version 3 of the License, or
   (at your option) any later version.
   
   xtb is distributed in the hope that it will be useful,
   but WITHOUT ANY WARRANTY; without even the implied warranty of
   MERCHANTABILITY or FITNESS FOR A PARTICULAR PURPOSE.  See the
   GNU Lesser General Public License for more details.
   
   Cite this work as:
   * C. Bannwarth, E. Caldeweyher, S. Ehlert, A. Hansen, P. Pracht,
     J. Seibert, S. Spicher, S. Grimme, WIREs Comput. Mol. Sci., 2020, 11,
     e01493. DOI: 10.1002/wcms.1493
   
   for GFN2-xTB:
   * C. Bannwarth, S. Ehlert and S. Grimme., J. Chem. Theory Comput., 2019,
     15, 1652-1671. DOI: 10.1021/acs.jctc.8b01176
   for GFN1-xTB:
   * S. Grimme, C. Bannwarth, P. Shushkov, J. Chem. Theory Comput., 2017,
     13, 1989-2009. DOI: 10.1021/acs.jctc.7b00118
   for GFN0-xTB:
   * P. Pracht, E. Caldeweyher, S. Ehlert, S. Grimme, ChemRxiv, 2019, preprint.
     DOI: 10.26434/chemrxiv.8326202.v1
   for GFN-FF:
   * S. Spicher and S. Grimme, Angew. Chem. Int. Ed., 2020, 59, 15665-15673.
     DOI: 10.1002/anie.202004239
   
   for ALPB and GBSA implicit solvation:
   * S. Ehlert, M. Stahn, S. Spicher, S. Grimme, J. Chem. Theory Comput.,
     2021, 17, 4250-4261. DOI: 10.1021/acs.jctc.1c00471
   
   for ddCOSMO and CPCM-X implicit solvation:
   * M. Stahn, S. Ehlert, S. Grimme, J. Phys. Chem. A,
     2023, XX, XXXX-XXXX. DOI: 10.1021/acs.jpca.3c04382
   
   for DFT-D4:
   * E. Caldeweyher, C. Bannwarth and S. Grimme, J. Chem. Phys., 2017,
     147, 034112. DOI: 10.1063/1.4993215
   * E. Caldeweyher, S. Ehlert, A. Hansen, H. Neugebauer, S. Spicher,
     C. Bannwarth and S. Grimme, J. Chem. Phys., 2019, 150, 154122.
     DOI: 10.1063/1.5090222
   * E. Caldeweyher, J.-M. Mewes, S. Ehlert and S. Grimme, Phys. Chem. Chem. Phys.
     2020, 22, 8499-8512. DOI: 10.1039/D0CP00502A
   
   for sTDA-xTB:
   * S. Grimme and C. Bannwarth, J. Chem. Phys., 2016, 145, 054103.
     DOI: 10.1063/1.4959605
   
   in the mass-spec context:
   * V. Asgeirsson, C. Bauer and S. Grimme, Chem. Sci., 2017, 8, 4879.
     DOI: 10.1039/c7sc00601b
   * J. Koopman and S. Grimme, ACS Omega 2019, 4, 12, 15120-15133.
     DOI: 10.1021/acsomega.9b02011
   
   for metadynamics refer to:
   * S. Grimme, J. Chem. Theory Comput., 2019, 155, 2847-2862
     DOI: 10.1021/acs.jctc.9b00143
   
   for SPH calculations refer to:
   * S. Spicher and S. Grimme, J. Chem. Theory Comput., 2021, 17, 1701-1714
     DOI: 10.1021/acs.jctc.0c01306
   
   for ONIOM refer to:
   * C. Plett, A. Katbashev, S. Ehlert, S. Grimme, M. Bursch,
     Phys. Chem. Chem. Phys., 2023, 25, 17860-17868. DOI: 10.1039/D3CP02178E
   
   for DIPRO refer to:
   * J. Kohn, N. Gildemeister, S. Grimme, D. Fazzi, A. Hansen,
     J. Chem. Phys. 159, 144106 (2023). DOI: 10.1063/5.0167484
   
   for PTB refer to:
   * S. Grimme, M. Mueller, A. Hansen, J. Chem. Phys., 2023, 158, 124111.
     DOI: 10.1063/5.0137838
   
   with help from (in alphabetical order)
   P. Atkinson, C. Bannwarth, F. Bohle, G. Brandenburg, E. Caldeweyher,
   M. Checinski, S. Dohm, S. Ehlert, S. Ehrlich, M. Friede, T. Froitzheim,
   I. Gerasimov, C. Hölzer, A. Katbashev, J. Kohn, J. Koopman, C. Lavigne,
   S. Lehtola, F. März, M. Müller, F. Musil, H. Neugebauer, J. Pisarek,
   C. Plett, P. Pracht, F. Pultar, J. Seibert, P. Shushkov, S. Spicher,
   M. Stahn, M. Steiner, T. Strunk, J. Stückrath, T. Rose, and J. Unsleber
   
 * started run on 2026/08/28 at 19:09:34.915     
   ID    Z sym.   atoms
    1    6 C      1
    2    8 O      2
    3    1 H      3-6

           -------------------------------------------------
          |                Calculation Setup                |
           -------------------------------------------------

          program call               : xtb in.xyz --gfn 2 --grad --norestart
          hostname                   : 756d39058c4f
          coordinate file            : in.xyz
          random seed                :             856307253


           -------------------------------------------------
          |                 G F N 2 - x T B                 |
           -------------------------------------------------

        Reference                      10.1021/acs.jctc.8b01176
      * Hamiltonian:
        H0-scaling (s, p, d)           1.850000    2.230000    2.230000
        zeta-weighting                 0.500000
      * Dispersion:
        s8                             2.700000
        a1                             0.520000
        a2                             5.000000
        s9                             5.000000
      * Repulsion:
        kExp                           1.500000    1.000000
        rExp                           1.000000
      * Coulomb:
        alpha                          2.000000
        third order                    shell-resolved
        anisotropic                    true
        a3                             3.000000
        a5                             4.000000
        cn-shift                       1.200000
        cn-exp                         4.000000
        max-rad                        5.000000


          ...................................................
          :                      SETUP                      :
          :.................................................:
          :  # basis functions                  12          :
          :  # atomic orbitals                  12          :
          :  # shells                            8          :
          :  # electrons                        14          :
          :  max. iterations                   250          :
          :  Hamiltonian                  GFN2-xTB          :
          :  restarted?                      false          :
          :  GBSA solvation                  false          :
          :  PC potential                    false          :
          :  electronic temp.          300.0000000     K    :
          :  accuracy                    1.0000000          :
          :  -> integral cutoff          0.2500000E+02      :
          :  -> integral neglect         0.1000000E-07      :
          :  -> SCF convergence          0.1000000E-05 Eh   :
          :  -> wf. convergence          0.1000000E-03 e    :
          :  Broyden damping             0.4000000          :
          :  net charge                          0          :
          :  unpaired electrons                  0          :
          ...................................................

 iter      E             dE          RMSdq      gap      omega  full diag
   1     -8.2834465 -0.828345E+01  0.461E+00   13.07       0.0  T
   2     -8.2965830 -0.131365E-01  0.244E+00   12.68       1.0  T
   3     -8.2969252 -0.342155E-03  0.805E-01   12.72       1.0  T
   4     -8.2969846 -0.594014E-04  0.132E-01   12.74       1.0  T
   5     -8.2969885 -0.391516E-05  0.296E-02   12.76       1.4  T
   6     -8.2969895 -0.105318E-05  0.166E-02   12.76       2.5  T
   7     -8.2969900 -0.422024E-06  0.500E-03   12.76       8.2  T
   8     -8.2969900 -0.279110E-07  0.537E-04   12.76      76.0  T
   9     -8.2969900 -0.516101E-09  0.161E-04   12.76     253.4  T

   *** convergence criteria satisfied after 9 iterations ***

         #    Occupation            Energy/Eh            Energy/eV
      -------------------------------------------------------------
         1        2.0000           -0.6874816             -18.7073
         2        2.0000           -0.6165278             -16.7766
         3        2.0000           -0.5670767             -15.4309
         4        2.0000           -0.5247089             -14.2781
         5        2.0000           -0.5187219             -14.1151
         6        2.0000           -0.4584813             -12.4759
         7        2.0000           -0.4156158             -11.3095 (HOMO)
         8                          0.0532740               1.4497 (LUMO)
         9                          0.1260842               3.4309
        10                          0.1636663               4.4536
        11                          0.2030167               5.5244
        12                          0.2271315               6.1806
      -------------------------------------------------------------
                  HL-Gap            0.4688899 Eh           12.7591 eV
             Fermi-level           -0.1811709 Eh           -4.9299 eV

 SCC (total)                   0 d,  0 h,  0 min,  0.011 sec
 SCC setup                      ...        0 min,  0.000 sec (  0.353%)
 Dispersion                     ...        0 min,  0.000 sec (  0.094%)
 classical contributions        ...        0 min,  0.000 sec (  0.023%)
 integral evaluation            ...        0 min,  0.000 sec (  3.277%)
 iterations                     ...        0 min,  0.001 sec (  6.999%)
 molecular gradient             ...        0 min,  0.000 sec (  2.103%)
 printout                       ...        0 min,  0.009 sec ( 87.070%)

         :::::::::::::::::::::::::::::::::::::::::::::::::::::
         ::                     SUMMARY                     ::
         :::::::::::::::::::::::::::::::::::::::::::::::::::::
         :: total energy              -8.225496190955 Eh    ::
         :: gradient norm              0.013710149706 Eh/a0 ::
         :: HOMO-LUMO gap             12.759142744814 eV    ::
         ::.................................................::
         :: SCC energy                -8.296989953796 Eh    ::
         :: -> isotropic ES            0.024692011943 Eh    ::
         :: -> anisotropic ES          0.001937608734 Eh    ::
         :: -> anisotropic XC          0.000445223243 Eh    ::
         :: -> dispersion             -0.001147696225 Eh    ::
         :: repulsion energy           0.071493762841 Eh    ::
         :: add. restraining           0.000000000000 Eh    ::
         :: total charge               0.000000000000 e     ::
         :::::::::::::::::::::::::::::::::::::::::::::::::::::

           -------------------------------------------------
          |                Property Printout                |
           -------------------------------------------------

    * Orbital Energies and Occupations

         #    Occupation            Energy/Eh            Energy/eV
      -------------------------------------------------------------
         1        2.0000           -0.6874816             -18.7073
         2        2.0000           -0.6165278             -16.7766
         3        2.0000           -0.5670767             -15.4309
         4        2.0000           -0.5247089             -14.2781
         5        2.0000           -0.5187219             -14.1151
         6        2.0000           -0.4584813             -12.4759
         7        2.0000           -0.4156158             -11.3095 (HOMO)
         8                          0.0532740               1.4497 (LUMO)
         9                          0.1260842               3.4309
        10                          0.1636663               4.4536
        11                          0.2030167               5.5244
        12                          0.2271315               6.1806
      -------------------------------------------------------------
                  HL-Gap            0.4688899 Eh           12.7591 eV
             Fermi-level           -0.1811709 Eh           -4.9299 eV

     #   Z          covCN         q      C6AA      α(0)
     1   6          3.622     0.039    20.357     6.504
     2   8          1.653    -0.438    21.604     6.274
     3   1          0.924     0.028     2.609     2.526
normal termination of xtb
     4   1          0.924     0.028     2.609     2.526
     5   1          0.924     0.056     2.250     2.346
     6   1          0.804     0.287     0.763     1.372

 Mol. C6AA /au·bohr⁶  :        216.593230
 Mol. C8AA /au·bohr⁸  :       4153.148869
 Mol. α(0) /au        :         21.548096


Wiberg/Mayer (AO) data.
largest (>0.10) Wiberg bond orders for each atom

 ---------------------------------------------------------------------------
     #   Z sym  total        # sym  WBO       # sym  WBO       # sym  WBO
 ---------------------------------------------------------------------------
     1   6      3.956 --     2      1.006     5      0.984     4      0.983
                             3      0.983
     2   8      1.948 --     1      1.006     6      0.907
     3   1      0.999 --     1      0.983
     4   1      0.999 --     1      0.983
     5   1      0.997 --     1      0.984
     6   1      0.918 --     2      0.907
 ---------------------------------------------------------------------------

Topologies differ in total number of bonds
Writing topology from bond orders to xtbtopo.mol

molecular dipole:
                 x           y           z       tot (Debye)
 q only:       -0.323      -0.126      -0.435
   full:       -0.411      -0.185      -0.639       1.987
molecular quadrupole (traceless):
                xx          xy          yy          xz          yz          zz
 q only:       -1.908      -1.023       0.473      -3.740       0.396       1.435
  q+dip:       -3.918      -1.467       1.356      -5.332       0.516       2.562
   full:       -3.245      -1.476       0.903      -5.362       0.589       2.342


           -------------------------------------------------
          | TOTAL ENERGY               -8.225496190955 Eh   |
          | GRADIENT NORM               0.013710149706 Eh/α |
          | HOMO-LUMO GAP              12.759142744814 eV   |
           -------------------------------------------------

------------------------------------------------------------------------
 * finished run on 2026/08/28 at 19:09:34.968     
------------------------------------------------------------------------
 total:
 * wall-time:     0 d,  0 h,  0 min,  0.053 sec
 *  cpu-time:     0 d,  0 h,  0 min,  0.020 sec
 * ratio c/w:     0.379 speedup
 SCF:
 * wall-time:     0 d,  0 h,  0 min,  0.011 sec
 *  cpu-time:     0 d,  0 h,  0 min,  0.001 sec
 * ratio c/w:     0.141 speedup

