      -----------------------------------------------------------      
     |                   =====================                   |     
     |                           x T B                           |     
     |                   =====================                   |     
     |                         S. Grimme                         |     
     |          Mulliken Center for Theoretical Chemistry        |     
     |                    University of Bonn                     |     
      -----------------------------------------------------------      

   * xtb version 6.7.1 (unknown) compiled by 'root@buildkitsandbox' on 2026-08-28

   xtb is free software: you can redistribute it and/or modify it under
   the terms of the GNU Lesser General Public License as published by
   the Free Software Foundation, either version 3 of the License, or
   (at your option) any later version.
   
   xtb is distributed in the hope that it will be useful,
   but WITHOUT ANY WARRANTY; without even the implied warranty of
   MERCHANTABILITY or FITNESS FOR A PARTICULAR PURPOSE.  See the
   GNU Lesser General Public License for more details.
   
   Cite this work as:
   * C. Bannwarth, E. Caldeweyher, S. Ehlert, A. Hansen, P. Pracht,
     J. Seibert, S. Spicher, S. Grimme, WIREs Comput. Mol. Sci., 2020, 11,
     e01493. DOI: 10.1002/wcms.1493
   
   for GFN2-xTB:
   * C. Bannwarth, S. Ehlert and S. Grimme., J. Chem. Theory Comput., 2019,
     15, 1652-1671. DOI: 10.1021/acs.jctc.8b01176
   for GFN1-xTB:
   * S. Grimme, C. Bannwarth, P. Shushkov, J. Chem. Theory Comput., 2017,
     13, 1989-2009. DOI: 10.1021/acs.jctc.7b00118
   for GFN0-xTB:
   * P. Pracht, E. Caldeweyher, S. Ehlert, S. Grimme, ChemRxiv, 2019, preprint.
     DOI: 10.26434/chemrxiv.8326202.v1
   for GFN-FF:
   * S. Spicher and S. Grimme, Angew. Chem. Int. Ed., 2020, 59, 15665-15673.
     DOI: 10.1002/anie.202004239
   
   for ALPB and GBSA implicit solvation:
   * S. Ehlert, M. Stahn, S. Spicher, S. Grimme, J. Chem. Theory Comput.,
     2021, 17, 4250-4261. DOI: 10.1021/acs.jctc.1c00471
   
   for ddCOSMO and CPCM-X implicit solvation:
   * M. Stahn, S. Ehlert, S. Grimme, J. Phys. Chem. A,
     2023, XX, XXXX-XXXX. DOI: 10.1021/acs.jpca.3c04382
   
   for DFT-D4:
   * E. Caldeweyher, C. Bannwarth and S. Grimme, J. Chem. Phys., 2017,
     147, 034112. DOI: 10.1063/1.4993215
   * E. Caldeweyher, S. Ehlert, A. Hansen, H. Neugebauer, S. Spicher,
     C. Bannwarth and S. Grimme, J. Chem. Phys., 2019, 150, 154122.
     DOI: 10.1063/1.5090222
   * E. Caldeweyher, J.-M. Mewes, S. Ehlert and S. Grimme, Phys. Chem. Chem. Phys.
     2020, 22, 8499-8512. DOI: 10.1039/D0CP00502A
   
   for sTDA-xTB:
   * S. Grimme and C. Bannwarth, J. Chem. Phys., 2016, 145, 054103.
     DOI: 10.1063/1.4959605
   
   in the mass-spec context:
   * V. Asgeirsson, C. Bauer and S. Grimme, Chem. Sci., 2017, 8, 4879.
     DOI: 10.1039/c7sc00601b
   * J. Koopman and S. Grimme, ACS Omega 2019, 4, 12, 15120-15133.
     DOI: 10.1021/acsomega.9b02011
   
   for metadynamics refer to:
   * S. Grimme, J. Chem. Theory Comput., 2019, 155, 2847-2862
     DOI: 10.1021/acs.jctc.9b00143
   
   for SPH calculations refer to:
   * S. Spicher and S. Grimme, J. Chem. Theory Comput., 2021, 17, 1701-1714
     DOI: 10.1021/acs.jctc.0c01306
   
   for ONIOM refer to:
   * C. Plett, A. Katbashev, S. Ehlert, S. Grimme, M. Bursch,
     Phys. Chem. Chem. Phys., 2023, 25, 17860-17868. DOI: 10.1039/D3CP02178E
   
   for DIPRO refer to:
   * J. Kohn, N. Gildemeister, S. Grimme, D. Fazzi, A. Hansen,
     J. Chem. Phys. 159, 144106 (2023). DOI: 10.1063/5.0167484
   
   for PTB refer to:
   * S. Grimme, M. Mueller, A. Hansen, J. Chem. Phys., 2023, 158, 124111.
     DOI: 10.1063/5.0137838
   
   with help from (in alphabetical order)
   P. Atkinson, C. Bannwarth, F. Bohle, G. Brandenburg, E. Caldeweyher,
   M. Checinski, S. Dohm, S. Ehlert, S. Ehrlich, M. Friede, T. Froitzheim,
   I. Gerasimov, C. Hölzer, A. Katbashev, J. Kohn, J. Koopman, C. Lavigne,
   S. Lehtola, F. März, M. Müller, F. Musil, H. Neugebauer, J. Pisarek,
   C. Plett, P. Pracht, F. Pultar, J. Seibert, P. Shushkov, S. Spicher,
   M. Stahn, M. Steiner, T. Strunk, J. Stückrath, T. Rose, and J. Unsleber
   
 * started run on 2026/08/28 at 19:09:38.858     
   ID    Z sym.   atoms
    1    6 C      1-10
    2    1 H      11-18

           -------------------------------------------------
          |                Calculation Setup                |
           -------------------------------------------------

          program call               : xtb in.xyz --gfn 2 --grad --norestart
          hostname                   : 756d39058c4f
          coordinate file            : in.xyz
          random seed                :            1956193409


           -------------------------------------------------
          |                 G F N 2 - x T B                 |
           -------------------------------------------------

        Reference                      10.1021/acs.jctc.8b01176
      * Hamiltonian:
        H0-scaling (s, p, d)           1.850000    2.230000    2.230000
        zeta-weighting                 0.500000
      * Dispersion:
        s8                             2.700000
        a1                             0.520000
        a2                             5.000000
        s9                             5.000000
      * Repulsion:
        kExp                           1.500000    1.000000
        rExp                           1.000000
      * Coulomb:
        alpha                          2.000000
        third order                    shell-resolved
        anisotropic                    true
        a3                             3.000000
        a5                             4.000000
        cn-shift                       1.200000
        cn-exp                         4.000000
        max-rad                        5.000000


          ...................................................
          :                      SETUP                      :
          :.................................................:
          :  # basis functions                  48          :
          :  # atomic orbitals                  48          :
          :  # shells                           28          :
          :  # electrons                        48          :
          :  max. iterations                   250          :
          :  Hamiltonian                  GFN2-xTB          :
          :  restarted?                      false          :
          :  GBSA solvation                  false          :
          :  PC potential                    false          :
          :  electronic temp.          300.0000000     K    :
          :  accuracy                    1.0000000          :
          :  -> integral cutoff          0.2500000E+02      :
          :  -> integral neglect         0.1000000E-07      :
          :  -> SCF convergence          0.1000000E-05 Eh   :
          :  -> wf. convergence          0.1000000E-03 e    :
          :  Broyden damping             0.4000000          :
          :  net charge                          0          :
          :  unpaired electrons                  0          :
          ...................................................

 iter      E             dE          RMSdq      gap      omega  full diag
   1    -25.9377915 -0.259378E+02  0.490E+00    2.96       0.0  T
   2    -25.9535198 -0.157283E-01  0.293E+00    2.95       1.0  T
   3    -25.9493165  0.420331E-02  0.680E-01    2.95       1.0  T
   4    -25.9535265 -0.420995E-02  0.302E-01    2.94       1.0  T
   5    -25.9552222 -0.169573E-02  0.375E-02    2.94       1.0  T
   6    -25.9552212  0.955082E-06  0.167E-02    2.94       1.4  T
   7    -25.9552232 -0.193816E-05  0.168E-03    2.94      14.0  T
   8    -25.9552232 -0.339176E-07  0.474E-04    2.94      49.7  T
   9    -25.9552232  0.916707E-10  0.120E-04    2.94     196.1  T

   *** convergence criteria satisfied after 9 iterations ***

         #    Occupation            Energy/Eh            Energy/eV
      -------------------------------------------------------------
         1        2.0000           -0.6471945             -17.6111
       ...           ...                  ...                  ...
        18        2.0000           -0.4482406             -12.1972
        19        2.0000           -0.4411399             -12.0040
        20        2.0000           -0.4226383             -11.5006
        21        2.0000           -0.4149979             -11.2927
        22        2.0000           -0.4149025             -11.2901
        23        2.0000           -0.4003850             -10.8950
        24        2.0000           -0.3724851             -10.1358 (HOMO)
        25                         -0.2644042              -7.1948 (LUMO)
        26                         -0.2244691              -6.1081
        27                         -0.1905614              -5.1854
        28                         -0.1480253              -4.0280
        29                         -0.0560092              -1.5241
       ...                                ...                  ...
        48                          0.6952575              18.9189
      -------------------------------------------------------------
                  HL-Gap            0.1080808 Eh            2.9410 eV
             Fermi-level           -0.3184447 Eh           -8.6653 eV

 SCC (total)                   0 d,  0 h,  0 min,  0.028 sec
 SCC setup                      ...        0 min,  0.000 sec (  0.476%)
 Dispersion                     ...        0 min,  0.000 sec (  0.426%)
 classical contributions        ...        0 min,  0.000 sec (  0.097%)
 integral evaluation            ...        0 min,  0.003 sec ( 10.439%)
 iterations                     ...        0 min,  0.012 sec ( 41.212%)
 molecular gradient             ...        0 min,  0.013 sec ( 44.777%)
 printout                       ...        0 min,  0.001 sec (  2.496%)

         :::::::::::::::::::::::::::::::::::::::::::::::::::::
         ::                     SUMMARY                     ::
         :::::::::::::::::::::::::::::::::::::::::::::::::::::
         :: total energy             -25.471081505807 Eh    ::
         :: gradient norm              0.071327068447 Eh/a0 ::
         :: HOMO-LUMO gap              2.941029376496 eV    ::
         ::.................................................::
         :: SCC energy               -25.955187212342 Eh    ::
         :: -> isotropic ES            0.001053599090 Eh    ::
         :: -> anisotropic ES          0.003464140297 Eh    ::
         :: -> anisotropic XC          0.018144123430 Eh    ::
         :: -> dispersion             -0.016596117320 Eh    ::
         :: repulsion energy           0.484105706535 Eh    ::
         :: add. restraining           0.000000000000 Eh    ::
         :: total charge              -0.000000000000 e     ::
         :::::::::::::::::::::::::::::::::::::::::::::::::::::

           -------------------------------------------------
          |                Property Printout                |
           -------------------------------------------------

    * Orbital Energies and Occupations

         #    Occupation            Energy/Eh            Energy/eV
      -------------------------------------------------------------
         1        2.0000           -0.6471945             -17.6111
       ...           ...                  ...                  ...
        12        2.0000           -0.4906314             -13.3508
        13        2.0000           -0.4891630             -13.3108
        14        2.0000           -0.4879500             -13.2778
        15        2.0000           -0.4717309             -12.8365
        16        2.0000           -0.4699929             -12.7892
        17        2.0000           -0.4584982             -12.4764
        18        2.0000           -0.4482406             -12.1972
        19        2.0000           -0.4411399             -12.0040
        20        2.0000           -0.4226383             -11.5006
        21        2.0000           -0.4149979             -11.2927
        22        2.0000           -0.4149025             -11.2901
        23        2.0000           -0.4003850             -10.8950
        24        2.0000           -0.3724851             -10.1358 (HOMO)
        25                         -0.2644042              -7.1948 (LUMO)
        26                         -0.2244691              -6.1081
        27                         -0.1905614              -5.1854
        28                         -0.1480253              -4.0280
        29                         -0.0560092              -1.5241
        30                          0.1037825               2.8241
        31                          0.1163770               3.1668
        32                          0.1325221               3.6061
        33                          0.1336219               3.6360
        34                          0.1607045               4.3730
        35                          0.1687150               4.5910
       ...                                ...                  ...
        48                          0.6952575              18.9189
      -------------------------------------------------------------
                  HL-Gap            0.1080808 Eh            2.9410 eV
             Fermi-level           -0.3184447 Eh           -8.6653 eV

     #   Z          covCN         q      C6AA      α(0)
     1   6          2.910    -0.031    28.764     8.794
     2   6          2.910    -0.031    28.764     8.794
     3   6          2.918    -0.037    28.911     8.817
     4   6          2.983     0.018    27.602     8.618
     5   6          2.918    -0.037    28.911     8.817
     6   6          2.910    -0.031    28.764     8.794
     7   6          2.910    -0.031    28.764     8.794
     8   6          2.918    -0.037    28.911     8.817
     9   6          2.983     0.018    27.602     8.618
    10   6          2.918    -0.037    28.911     8.817
    11   1          0.925     0.029     2.608     2.525
    12   1          0.925     0.029     2.608     2.525
    13   1          0.925     0.030     2.590     2.517
    14   1          0.925     0.030     2.590     2.517
    15   1          0.925     0.029     2.608     2.525
    16   1          0.925     0.029     2.608     2.525
    17   1          0.925     0.030     2.590     2.517
    18   1          0.925     0.030     2.590     2.517

 Mol. C6AA /au·bohr⁶  :       4402.415022
 Mol. C8AA /au·bohr⁸  :     110444.757413
 Mol. α(0) /au        :        107.850159


Wiberg/Mayer (AO) data.
largest (>0.10) Wiberg bond orders for each atom

 ---------------------------------------------------------------------------
     #   Z sym  total        # sym  WBO       # sym  WBO       # sym  WBO
 ---------------------------------------------------------------------------
     1   6      3.992 --    10      1.519     2      1.360    11      0.971
     2   6      3.992 --     3      1.519     1      1.360    12      0.971
     3   6      3.991 --     2      1.519     4      1.297    13      0.970
                            10      0.131
     4   6      3.991 --     3      1.297     5      1.297     9      1.229
     5   6      3.991 --     6      1.519     4      1.297    14      0.970
                             8      0.131
     6   6      3.992 --     5      1.519     7      1.360    15      0.971
     7   6      3.992 --     8      1.519     6      1.360    16      0.971
     8   6      3.991 --     7      1.519     9      1.297    17      0.970
                             5      0.131
     9   6      3.991 --     8      1.297    10      1.297     4      1.229
    10   6      3.991 --     1      1.519     9      1.297    18      0.970
                             3      0.131
    11   1      0.998 --     1      0.971
    12   1      0.998 --     2      0.971
    13   1      0.999 --     3      0.970
    14   1      0.999 --     5      0.970
    15   1      0.998 --     6      0.971
    16   1      0.998 --     7      0.971
    17   1      0.999 --     8      0.970
    18   1      0.999 --    10      0.970
 ---------------------------------------------------------------------------

Topologies differ in total number of bonds
Writing topology from bond orders to xtbtopo.mol
Note: The following floating-point exceptions are signalling: IEEE_UNDERFLOW_FLAG
normal termination of xtb

molecular dipole:
                 x           y           z       tot (Debye)
 q only:        0.000       0.000       0.000
   full:        0.000       0.000       0.000       0.000
molecular quadrupole (traceless):
                xx          xy          yy          xz          yz          zz
 q only:        0.881       0.000       1.118      -0.003       0.002      -2.000
  q+dip:        4.268       0.000       4.390      -0.014       0.009      -8.657
   full:        1.982       0.000       2.254      -0.007       0.004      -4.236


           -------------------------------------------------
          | TOTAL ENERGY              -25.471081505807 Eh   |
          | GRADIENT NORM               0.071327068447 Eh/α |
          | HOMO-LUMO GAP               2.941029376496 eV   |
           -------------------------------------------------

------------------------------------------------------------------------
 * finished run on 2026/08/28 at 19:09:38.922     
------------------------------------------------------------------------
 total:
 * wall-time:     0 d,  0 h,  0 min,  0.064 sec
 *  cpu-time:     0 d,  0 h,  0 min,  0.050 sec
 * ratio c/w:     0.779 speedup
 SCF:
 * wall-time:     0 d,  0 h,  0 min,  0.028 sec
 *  cpu-time:     0 d,  0 h,  0 min,  0.028 sec
 * ratio c/w:     0.984 speedup

