      -----------------------------------------------------------      
     |                   =====================                   |     
     |                           x T B                           |     
     |                   =====================                   |     
     |                         S. Grimme                         |     
     |          Mulliken Center for Theoretical Chemistry        |     
     |                    University of Bonn                     |     
      -----------------------------------------------------------      

   * xtb version 6.7.1 (unknown) compiled by 'root@buildkitsandbox' on 2026-08-28

   xtb is free software: you can redistribute it and/or modify it under
   the terms of the GNU Lesser General Public License as published by
   the Free Software Foundation, either version 3 of the License, or
   (at your option) any later version.
   
   xtb is distributed in the hope that it will be useful,
   but WITHOUT ANY WARRANTY; without even the implied warranty of
   MERCHANTABILITY or FITNESS FOR A PARTICULAR PURPOSE.  See the
   GNU Lesser General Public License for more details.
   
   Cite this work as:
   * C. Bannwarth, E. Caldeweyher, S. Ehlert, A. Hansen, P. Pracht,
     J. Seibert, S. Spicher, S. Grimme, WIREs Comput. Mol. Sci., 2020, 11,
     e01493. DOI: 10.1002/wcms.1493
   
   for GFN2-xTB:
   * C. Bannwarth, S. Ehlert and S. Grimme., J. Chem. Theory Comput., 2019,
     15, 1652-1671. DOI: 10.1021/acs.jctc.8b01176
   for GFN1-xTB:
   * S. Grimme, C. Bannwarth, P. Shushkov, J. Chem. Theory Comput., 2017,
     13, 1989-2009. DOI: 10.1021/acs.jctc.7b00118
   for GFN0-xTB:
   * P. Pracht, E. Caldeweyher, S. Ehlert, S. Grimme, ChemRxiv, 2019, preprint.
     DOI: 10.26434/chemrxiv.8326202.v1
   for GFN-FF:
   * S. Spicher and S. Grimme, Angew. Chem. Int. Ed., 2020, 59, 15665-15673.
     DOI: 10.1002/anie.202004239
   
   for ALPB and GBSA implicit solvation:
   * S. Ehlert, M. Stahn, S. Spicher, S. Grimme, J. Chem. Theory Comput.,
     2021, 17, 4250-4261. DOI: 10.1021/acs.jctc.1c00471
   
   for ddCOSMO and CPCM-X implicit solvation:
   * M. Stahn, S. Ehlert, S. Grimme, J. Phys. Chem. A,
     2023, XX, XXXX-XXXX. DOI: 10.1021/acs.jpca.3c04382
   
   for DFT-D4:
   * E. Caldeweyher, C. Bannwarth and S. Grimme, J. Chem. Phys., 2017,
     147, 034112. DOI: 10.1063/1.4993215
   * E. Caldeweyher, S. Ehlert, A. Hansen, H. Neugebauer, S. Spicher,
     C. Bannwarth and S. Grimme, J. Chem. Phys., 2019, 150, 154122.
     DOI: 10.1063/1.5090222
   * E. Caldeweyher, J.-M. Mewes, S. Ehlert and S. Grimme, Phys. Chem. Chem. Phys.
     2020, 22, 8499-8512. DOI: 10.1039/D0CP00502A
   
   for sTDA-xTB:
   * S. Grimme and C. Bannwarth, J. Chem. Phys., 2016, 145, 054103.
     DOI: 10.1063/1.4959605
   
   in the mass-spec context:
   * V. Asgeirsson, C. Bauer and S. Grimme, Chem. Sci., 2017, 8, 4879.
     DOI: 10.1039/c7sc00601b
   * J. Koopman and S. Grimme, ACS Omega 2019, 4, 12, 15120-15133.
     DOI: 10.1021/acsomega.9b02011
   
   for metadynamics refer to:
   * S. Grimme, J. Chem. Theory Comput., 2019, 155, 2847-2862
     DOI: 10.1021/acs.jctc.9b00143
   
   for SPH calculations refer to:
   * S. Spicher and S. Grimme, J. Chem. Theory Comput., 2021, 17, 1701-1714
     DOI: 10.1021/acs.jctc.0c01306
   
   for ONIOM refer to:
   * C. Plett, A. Katbashev, S. Ehlert, S. Grimme, M. Bursch,
     Phys. Chem. Chem. Phys., 2023, 25, 17860-17868. DOI: 10.1039/D3CP02178E
   
   for DIPRO refer to:
   * J. Kohn, N. Gildemeister, S. Grimme, D. Fazzi, A. Hansen,
     J. Chem. Phys. 159, 144106 (2023). DOI: 10.1063/5.0167484
   
   for PTB refer to:
   * S. Grimme, M. Mueller, A. Hansen, J. Chem. Phys., 2023, 158, 124111.
     DOI: 10.1063/5.0137838
   
   with help from (in alphabetical order)
   P. Atkinson, C. Bannwarth, F. Bohle, G. Brandenburg, E. Caldeweyher,
   M. Checinski, S. Dohm, S. Ehlert, S. Ehrlich, M. Friede, T. Froitzheim,
   I. Gerasimov, C. Hölzer, A. Katbashev, J. Kohn, J. Koopman, C. Lavigne,
   S. Lehtola, F. März, M. Müller, F. Musil, H. Neugebauer, J. Pisarek,
   C. Plett, P. Pracht, F. Pultar, J. Seibert, P. Shushkov, S. Spicher,
   M. Stahn, M. Steiner, T. Strunk, J. Stückrath, T. Rose, and J. Unsleber
   
 * started run on 2026/08/28 at 19:10:02.311     
   ID    Z sym.   atoms
    1    6 C      1-10
    2    1 H      11-18

           -------------------------------------------------
          |                Calculation Setup                |
           -------------------------------------------------

          program call               : xtb in.xyz --gfn 2 --opt --norestart
          hostname                   : 756d39058c4f
          coordinate file            : in.xyz
          random seed                :             756651347


           -------------------------------------------------
          |                 G F N 2 - x T B                 |
           -------------------------------------------------

        Reference                      10.1021/acs.jctc.8b01176
      * Hamiltonian:
        H0-scaling (s, p, d)           1.850000    2.230000    2.230000
        zeta-weighting                 0.500000
      * Dispersion:
        s8                             2.700000
        a1                             0.520000
        a2                             5.000000
        s9                             5.000000
      * Repulsion:
        kExp                           1.500000    1.000000
        rExp                           1.000000
      * Coulomb:
        alpha                          2.000000
        third order                    shell-resolved
        anisotropic                    true
        a3                             3.000000
        a5                             4.000000
        cn-shift                       1.200000
        cn-exp                         4.000000
        max-rad                        5.000000


          ...................................................
          :                      SETUP                      :
          :.................................................:
          :  # basis functions                  48          :
          :  # atomic orbitals                  48          :
          :  # shells                           28          :
          :  # electrons                        48          :
          :  max. iterations                   250          :
          :  Hamiltonian                  GFN2-xTB          :
          :  restarted?                      false          :
          :  GBSA solvation                  false          :
          :  PC potential                    false          :
          :  electronic temp.          300.0000000     K    :
          :  accuracy                    1.0000000          :
          :  -> integral cutoff          0.2500000E+02      :
          :  -> integral neglect         0.1000000E-07      :
          :  -> SCF convergence          0.1000000E-05 Eh   :
          :  -> wf. convergence          0.1000000E-03 e    :
          :  Broyden damping             0.4000000          :
          :  net charge                          0          :
          :  unpaired electrons                  0          :
          ...................................................

 iter      E             dE          RMSdq      gap      omega  full diag
   1    -25.9377915 -0.259378E+02  0.490E+00    2.96       0.0  T
   2    -25.9535198 -0.157283E-01  0.293E+00    2.95       1.0  T
   3    -25.9493165  0.420331E-02  0.680E-01    2.95       1.0  T
   4    -25.9535265 -0.420995E-02  0.302E-01    2.94       1.0  T
   5    -25.9552222 -0.169573E-02  0.375E-02    2.94       1.0  T
   6    -25.9552212  0.955082E-06  0.167E-02    2.94       1.4  T
   7    -25.9552232 -0.193816E-05  0.168E-03    2.94      14.0  T
   8    -25.9552232 -0.339176E-07  0.474E-04    2.94      49.7  T
   9    -25.9552232  0.916707E-10  0.120E-04    2.94     196.1  T

   *** convergence criteria satisfied after 9 iterations ***

         #    Occupation            Energy/Eh            Energy/eV
      -------------------------------------------------------------
         1        2.0000           -0.6471945             -17.6111
       ...           ...                  ...                  ...
        18        2.0000           -0.4482406             -12.1972
        19        2.0000           -0.4411399             -12.0040
        20        2.0000           -0.4226383             -11.5006
        21        2.0000           -0.4149979             -11.2927
        22        2.0000           -0.4149025             -11.2901
        23        2.0000           -0.4003850             -10.8950
        24        2.0000           -0.3724851             -10.1358 (HOMO)
        25                         -0.2644042              -7.1948 (LUMO)
        26                         -0.2244691              -6.1081
        27                         -0.1905614              -5.1854
        28                         -0.1480253              -4.0280
        29                         -0.0560092              -1.5241
       ...                                ...                  ...
        48                          0.6952575              18.9189
      -------------------------------------------------------------
                  HL-Gap            0.1080808 Eh            2.9410 eV
             Fermi-level           -0.3184447 Eh           -8.6653 eV

 SCC (total)                   0 d,  0 h,  0 min,  0.015 sec
 SCC setup                      ...        0 min,  0.000 sec (  0.542%)
 Dispersion                     ...        0 min,  0.000 sec (  0.791%)
 classical contributions        ...        0 min,  0.000 sec (  0.064%)
 integral evaluation            ...        0 min,  0.001 sec (  7.886%)
 iterations                     ...        0 min,  0.008 sec ( 51.627%)
 molecular gradient             ...        0 min,  0.005 sec ( 34.691%)
 printout                       ...        0 min,  0.001 sec (  4.321%)

         :::::::::::::::::::::::::::::::::::::::::::::::::::::
         ::                     SUMMARY                     ::
         :::::::::::::::::::::::::::::::::::::::::::::::::::::
         :: total energy             -25.471081505807 Eh    ::
         :: gradient norm              0.071327068447 Eh/a0 ::
         :: HOMO-LUMO gap              2.941029376496 eV    ::
         ::.................................................::
         :: SCC energy               -25.955187212342 Eh    ::
         :: -> isotropic ES            0.001053599090 Eh    ::
         :: -> anisotropic ES          0.003464140297 Eh    ::
         :: -> anisotropic XC          0.018144123430 Eh    ::
         :: -> dispersion             -0.016596117320 Eh    ::
         :: repulsion energy           0.484105706535 Eh    ::
         :: add. restraining           0.000000000000 Eh    ::
         :: total charge              -0.000000000000 e     ::
         :::::::::::::::::::::::::::::::::::::::::::::::::::::

      ----------------------------------------------------------- 
     |                   =====================                   |
     |                        A N C O P T                        |
     |                   =====================                   |
     |               Approximate Normal Coordinate               |
     |                Rational Function Optimizer                |
      ----------------------------------------------------------- 

          ...................................................
          :                      SETUP                      :
          :.................................................:
          :   optimization level            normal          :
          :   max. optcycles                   200          :
          :   ANC micro-cycles                  20          :
          :   degrees of freedom                48          :
          :.................................................:
          :   RF solver                   davidson          :
          :   write xtbopt.log                true          :
          :   linear?                        false          :
          :   energy convergence         0.5000000E-05 Eh   :
          :   grad. convergence          0.1000000E-02 Eh/α :
          :   maximum RF displ.          1.0000000          :
          :   Hlow (freq-cutoff)         0.1000000E-01      :
          :   Hmax (freq-cutoff)         5.0000000          :
          :   S6 in model hess.         20.0000000          :
          ...................................................

generating ANC from exact Hessian ...
Using Lindh-Hessian (1995)
 Shifting diagonal of input Hessian by    4.5225342322488893E-003
 Lowest  eigenvalues of input Hessian
    0.000000    0.000000    0.000000    0.000000    0.000000    0.000000
    0.010000    0.010276    0.018415    0.023082    0.023631    0.026220
    0.032211    0.038633    0.062921    0.066743    0.069153    0.080380
 Highest eigenvalues
    1.768958    1.792852    1.794348    1.909295    2.005482    2.080329


........................................................................
.............................. CYCLE    1 ..............................
........................................................................

 iter      E             dE          RMSdq      gap      omega  full diag
   1    -25.9552232 -0.259552E+02  0.142E-05    2.94       0.0  T
   2    -25.9552232 -0.198952E-12  0.720E-06    2.94    3273.0  T
   3    -25.9552232  0.284217E-13  0.547E-06    2.94    4305.9  T
     SCC iter.                  ...        0 min,  0.003 sec
     gradient                   ...        0 min,  0.006 sec
 * total energy  :   -25.4710815 Eh     change       -0.2364686E-09 Eh
   gradient norm :     0.0713271 Eh/α   predicted     0.0000000E+00 (-100.00%)
   displ. norm   :     0.1014021 α      lambda       -0.4256094E-02
   maximum displ.:     0.0582823 α      in ANC's #25, #9, #18, ...

........................................................................
.............................. CYCLE    2 ..............................
........................................................................

 iter      E             dE          RMSdq      gap      omega  full diag
   1    -25.9768145 -0.259768E+02  0.107E-01    3.14       0.0  T
   2    -25.9768274 -0.128943E-04  0.715E-02    3.14       1.0  T
   3    -25.9768210  0.638467E-05  0.280E-02    3.14       1.0  T
   4    -25.9768326 -0.115638E-04  0.480E-03    3.14       4.9  T
   5    -25.9768329 -0.368412E-06  0.141E-03    3.14      16.7  T
   6    -25.9768329 -0.167511E-08  0.211E-04    3.14     111.7  T
   7    -25.9768329 -0.885301E-10  0.305E-05    3.14     773.8  T
     SCC iter.                  ...        0 min,  0.006 sec
     gradient                   ...        0 min,  0.006 sec
 * total energy  :   -25.4738965 Eh     change       -0.2814947E-02 Eh
   gradient norm :     0.0279518 Eh/α   predicted    -0.2149929E-02 ( -23.62%)
   displ. norm   :     0.0417243 α      lambda       -0.8185048E-03
   maximum displ.:     0.0241822 α      in ANC's #9, #45, #37, ...

........................................................................
.............................. CYCLE    3 ..............................
........................................................................

 iter      E             dE          RMSdq      gap      omega  full diag
   1    -25.9837055 -0.259837E+02  0.547E-02    3.25       0.0  T
   2    -25.9837097 -0.422194E-05  0.353E-02    3.24       1.0  T
   3    -25.9837088  0.896791E-06  0.152E-02    3.24       1.5  T
   4    -25.9837113 -0.255537E-05  0.251E-03    3.24       9.4  T
   5    -25.9837114 -0.105841E-06  0.671E-04    3.24      35.1  T
   6    -25.9837114 -0.450409E-09  0.867E-05    3.24     271.8  T
     SCC iter.                  ...        0 min,  0.007 sec
     gradient                   ...        0 min,  0.004 sec
 * total energy  :   -25.4743353 Eh     change       -0.4388314E-03 Eh
   gradient norm :     0.0046675 Eh/α   predicted    -0.4099664E-03 (  -6.58%)
   displ. norm   :     0.0208199 α      lambda       -0.5837823E-04
   maximum displ.:     0.0170144 α      in ANC's #17, #18, #25, ...

........................................................................
.............................. CYCLE    4 ..............................
........................................................................

 iter      E             dE          RMSdq      gap      omega  full diag
   1    -25.9824424 -0.259824E+02  0.244E-02    3.25       0.0  T
   2    -25.9824425 -0.454002E-07  0.142E-02    3.25       1.7  T
   3    -25.9824425  0.166139E-07  0.168E-03    3.25      14.1  T
   4    -25.9824425 -0.372277E-07  0.377E-04    3.25      62.6  T
   5    -25.9824425  0.436206E-09  0.164E-04    3.25     143.6  T
     SCC iter.                  ...        0 min,  0.005 sec
     gradient                   ...        0 min,  0.003 sec
 * total energy  :   -25.4743760 Eh     change       -0.4075946E-04 Eh
   gradient norm :     0.0022040 Eh/α   predicted    -0.2920106E-04 ( -28.36%)
   displ. norm   :     0.0157311 α      lambda       -0.1861037E-04
   maximum displ.:     0.0138530 α      in ANC's #17, #25, #9, ...

........................................................................
.............................. CYCLE    5 ..............................
........................................................................

 iter      E             dE          RMSdq      gap      omega  full diag
   1    -25.9815023 -0.259815E+02  0.161E-02    3.25       0.0  T
   2    -25.9815023 -0.235714E-07  0.948E-03    3.25       2.5  T
   3    -25.9815023  0.664866E-07  0.188E-03    3.25      12.5  T
   4    -25.9815024 -0.831464E-07  0.284E-04    3.25      82.9  T
   5    -25.9815024 -0.802700E-10  0.151E-04    3.25     156.3  T
     SCC iter.                  ...        0 min,  0.005 sec
     gradient                   ...        0 min,  0.005 sec
 * total energy  :   -25.4743858 Eh     change       -0.9733772E-05 Eh
   gradient norm :     0.0005409 Eh/α   predicted    -0.9305726E-05 (  -4.40%)
   displ. norm   :     0.0024360 α      lambda       -0.3982832E-06
   maximum displ.:     0.0017460 α      in ANC's #17, #18, #9, ...

........................................................................
.............................. CYCLE    6 ..............................
........................................................................

 iter      E             dE          RMSdq      gap      omega  full diag
   1    -25.9815983 -0.259816E+02  0.328E-03    3.25       0.0  T
   2    -25.9815983 -0.212115E-08  0.195E-03    3.25      12.1  T
   3    -25.9815982  0.766647E-08  0.642E-04    3.25      36.7  T
   4    -25.9815983 -0.907033E-08  0.628E-05    3.25     375.5  T
     SCC iter.                  ...        0 min,  0.003 sec
     gradient                   ...        0 min,  0.003 sec
 * total energy  :   -25.4743861 Eh     change       -0.3227679E-06 Eh
   gradient norm :     0.0000919 Eh/α   predicted    -0.1989798E-06 ( -38.35%)
   displ. norm   :     0.0008324 α      lambda       -0.2731119E-07
   maximum displ.:     0.0005973 α      in ANC's #18, #17, #9, ...

   *** GEOMETRY OPTIMIZATION CONVERGED AFTER 6 ITERATIONS ***

------------------------------------------------------------------------
 total energy gain   :        -0.0033046 Eh       -2.0737 kcal/mol
 total RMSD          :         0.0317729 a0        0.0168 Å
 total power (kW/mol):        -1.4460352 (step) -111.9521 (real)
------------------------------------------------------------------------

 ANCopt (total)                0 d,  0 h,  0 min,  0.078 sec
 optimizer setup                ...        0 min,  0.000 sec (  0.284%)
 model hessian                  ...        0 min,  0.004 sec (  4.716%)
 ANC generation                 ...        0 min,  0.001 sec (  0.900%)
 coordinate transformation      ...        0 min,  0.000 sec (  0.098%)
 single point calculation       ...        0 min,  0.070 sec ( 90.614%)
 optimization log               ...        0 min,  0.000 sec (  0.434%)
 hessian update                 ...        0 min,  0.000 sec (  0.051%)
 rational function              ...        0 min,  0.001 sec (  1.328%)

================
 final structure:
================
18
 xtb: 6.7.1 (unknown)
C            2.41361805410203       -0.70193873598019       -0.00562619709642
C            2.41477258245154        0.70199800700786       -0.00468976167423
C            1.23581959354252        1.39290135021252       -0.00297429222576
C            0.00050759886686        0.71185446285079       -0.00210972608879
C           -1.23368253526310        1.39493045363613       -0.00033787883335
C           -2.41377026083266        0.70596536067407        0.00047412725372
C           -2.41492477857388       -0.69797135876354       -0.00044923212439
C           -1.23597178291422       -1.38887469463945       -0.00217390643139
C           -0.00065983813133       -0.70782776969440       -0.00304996475316
C            1.23353025659935       -1.39090371477792       -0.00482553253910
H            3.35509776617654       -1.23192725699598       -0.00698364091709
H            3.35712276841385        1.23043868691740       -0.00534089182215
H            1.23154946254289        2.47395658833740       -0.00225186390310
H           -1.22763435061539        2.47597718176288        0.00036795086042
H           -3.35525003250728        1.23595386068842        0.00183114718674
H           -3.35727496263630       -1.22641197842759        0.00021319243970
H           -1.23170157708676       -2.46992993410599       -0.00289456248188
H            1.22748203586536       -2.47195050870241       -0.00553896684977

 Bond Distances (Angstroems)
 ---------------------------
C1-C2=1.4039         C1-C10=1.3665        C1-H11=1.0804        C2-C1=1.4039         C2-C3=1.3665         C2-H12=1.0804        
C3-C2=1.3665         C3-C4=1.4106         C3-H13=1.0811        C4-C3=1.4106         C4-C5=1.4106         C4-C9=1.4197         
C5-C4=1.4106         C5-C6=1.3665         C5-H14=1.0811        C6-C5=1.3665         C6-C7=1.4039         C6-H15=1.0804        
C7-C6=1.4039         C7-C8=1.3665         C7-H16=1.0804        C8-C7=1.3665         C8-C9=1.4106         C8-H17=1.0811        
C9-C4=1.4197         C9-C8=1.4106         C9-C10=1.4106        C10-C1=1.3665        C10-C9=1.4106        C10-H18=1.0811       
H11-C1=1.0804        H12-C2=1.0804        H13-C3=1.0811        H14-C5=1.0811        H15-C6=1.0804        H16-C7=1.0804        
H17-C8=1.0811        H18-C10=1.0811       
 C  H  Rav=1.0807 sigma=0.0003  Rmin=1.0804  Rmax=1.0811     8
 C  C  Rav=1.3942 sigma=0.0213  Rmin=1.3665  Rmax=1.4197    11

 selected bond angles (degree)
 --------------------
C10-C1-C2=120.32               H11-C1-C2=119.33               H11-C1-C10=120.35              C3-C2-C1=120.32                
H12-C2-C1=119.33               H12-C2-C3=120.35               C4-C3-C2=120.76                H13-C3-C2=120.60               
H13-C3-C4=118.64               C5-C4-C3=122.17                C9-C4-C3=118.92                C9-C4-C5=118.92                
C6-C5-C4=120.76                H14-C5-C4=118.64               H14-C5-C6=120.60               C7-C6-C5=120.32                
H15-C6-C5=120.35               H15-C6-C7=119.33               C8-C7-C6=120.32                H16-C7-C6=119.33               
H16-C7-C8=120.35               C9-C8-C7=120.76                H17-C8-C7=120.60               H17-C8-C9=118.64               
C8-C9-C4=118.92                C10-C9-C4=118.92               C10-C9-C8=122.17               C9-C10-C1=120.76               
H18-C10-C1=120.60              H18-C10-C9=118.64              

 selected dihedral angles (degree)
 ---------------------------------
C3-C2-C1-C10=  0.00           C3-C2-C1-H11=180.00           H12-C2-C1-C10=180.00          H12-C2-C1-H11=  0.00          
C4-C3-C2-C1=  0.00            C4-C3-C2-H12=180.00           H13-C3-C2-C1=180.00           H13-C3-C2-H12=  0.00          
C5-C4-C3-C2=180.00            C5-C4-C3-H13=  0.00           C9-C4-C3-C2=  0.00            C9-C4-C3-H13=180.00           
C6-C5-C4-C3=180.00            C6-C5-C4-C9=  0.00            H14-C5-C4-C3=  0.00           H14-C5-C4-C9=180.00           
C7-C6-C5-C4=  0.00            C7-C6-C5-H14=180.00           H15-C6-C5-C4=180.00           H15-C6-C5-H14=  0.00          
C8-C7-C6-C5=  0.00            C8-C7-C6-H15=180.00           H16-C7-C6-C5=180.00           H16-C7-C6-H15=  0.00          
C9-C8-C7-C6=  0.00            C9-C8-C7-H16=180.00           H17-C8-C7-C6=180.00           H17-C8-C7-H16=  0.00          
C8-C9-C4-C3=180.00            C8-C9-C4-C5=  0.00            C10-C9-C4-C3=  0.00           C10-C9-C4-C5=180.00           
C4-C9-C8-C7=  0.00            C4-C9-C8-H17=180.00           C10-C9-C8-C7=180.00           C10-C9-C8-H17=  0.00          
C9-C10-C1-C2=  0.00           C9-C10-C1-H11=180.00          H18-C10-C1-C2=180.00          H18-C10-C1-H11=  0.00         
C1-C10-C9-C4=  0.00           C1-C10-C9-C8=180.00           H18-C10-C9-C4=180.00          H18-C10-C9-C8=  0.00          
           -------------------------------------------------
          |                Final Singlepoint                |
           -------------------------------------------------

          ...................................................
          :                      SETUP                      :
          :.................................................:
          :  # basis functions                  48          :
          :  # atomic orbitals                  48          :
          :  # shells                           28          :
          :  # electrons                        48          :
          :  max. iterations                   250          :
          :  Hamiltonian                  GFN2-xTB          :
          :  restarted?                      false          :
          :  GBSA solvation                  false          :
          :  PC potential                    false          :
          :  electronic temp.          300.0000000     K    :
          :  accuracy                    1.0000000          :
          :  -> integral cutoff          0.2500000E+02      :
          :  -> integral neglect         0.1000000E-07      :
          :  -> SCF convergence          0.1000000E-05 Eh   :
          :  -> wf. convergence          0.1000000E-03 e    :
          :  Broyden damping             0.4000000          :
          :  net charge                          0          :
          :  unpaired electrons                  0          :
          ...................................................

 iter      E             dE          RMSdq      gap      omega  full diag
   1    -25.9815983 -0.259816E+02  0.336E-05    3.25       0.0  T
   2    -25.9815983 -0.130385E-11  0.177E-05    3.25    1328.3  T
   3    -25.9815983  0.127898E-12  0.124E-05    3.25    1898.2  T

   *** convergence criteria satisfied after 3 iterations ***

         #    Occupation            Energy/Eh            Energy/eV
      -------------------------------------------------------------
         1        2.0000           -0.6476389             -17.6232
       ...           ...                  ...                  ...
        18        2.0000           -0.4507011             -12.2642
        19        2.0000           -0.4398283             -11.9683
        20        2.0000           -0.4242535             -11.5445
        21        2.0000           -0.4153396             -11.3020
        22        2.0000           -0.4130102             -11.2386
        23        2.0000           -0.3984517             -10.8424
        24        2.0000           -0.3773673             -10.2687 (HOMO)
        25                         -0.2579331              -7.0187 (LUMO)
        26                         -0.2264254              -6.1613
        27                         -0.1870035              -5.0886
        28                         -0.1427828              -3.8853
        29                         -0.0538379              -1.4650
       ...                                ...                  ...
        48                          0.6999312              19.0461
      -------------------------------------------------------------
                  HL-Gap            0.1194342 Eh            3.2500 eV
             Fermi-level           -0.3176502 Eh           -8.6437 eV

 SCC (total)                   0 d,  0 h,  0 min,  0.013 sec
 SCC setup                      ...        0 min,  0.000 sec (  2.663%)
 Dispersion                     ...        0 min,  0.000 sec (  0.632%)
 classical contributions        ...        0 min,  0.000 sec (  0.209%)
 integral evaluation            ...        0 min,  0.003 sec ( 20.316%)
 iterations                     ...        0 min,  0.004 sec ( 32.274%)
 molecular gradient             ...        0 min,  0.006 sec ( 43.025%)
 printout                       ...        0 min,  0.000 sec (  0.755%)

         :::::::::::::::::::::::::::::::::::::::::::::::::::::
         ::                     SUMMARY                     ::
         :::::::::::::::::::::::::::::::::::::::::::::::::::::
         :: total energy             -25.474386100283 Eh    ::
         :: gradient norm              0.000091902113 Eh/a0 ::
         :: HOMO-LUMO gap              3.249969921062 eV    ::
         ::.................................................::
         :: SCC energy               -25.981561175386 Eh    ::
         :: -> isotropic ES            0.001063348785 Eh    ::
         :: -> anisotropic ES          0.003282111665 Eh    ::
         :: -> anisotropic XC          0.017407207084 Eh    ::
         :: -> dispersion             -0.016653255680 Eh    ::
         :: repulsion energy           0.507175075103 Eh    ::
         :: add. restraining           0.000000000000 Eh    ::
         :: total charge               0.000000000000 e     ::
         :::::::::::::::::::::::::::::::::::::::::::::::::::::

           -------------------------------------------------
          |                Property Printout                |
           -------------------------------------------------

    * Orbital Energies and Occupations

         #    Occupation            Energy/Eh            Energy/eV
      -------------------------------------------------------------
         1        2.0000           -0.6476389             -17.6232
       ...           ...                  ...                  ...
        12        2.0000           -0.4910062             -13.3610
        13        2.0000           -0.4897535             -13.3269
        14        2.0000           -0.4878376             -13.2747
        15        2.0000           -0.4729570             -12.8698
        16        2.0000           -0.4698255             -12.7846
        17        2.0000           -0.4599883             -12.5169
        18        2.0000           -0.4507011             -12.2642
        19        2.0000           -0.4398283             -11.9683
        20        2.0000           -0.4242535             -11.5445
        21        2.0000           -0.4153396             -11.3020
        22        2.0000           -0.4130102             -11.2386
        23        2.0000           -0.3984517             -10.8424
        24        2.0000           -0.3773673             -10.2687 (HOMO)
        25                         -0.2579331              -7.0187 (LUMO)
        26                         -0.2264254              -6.1613
        27                         -0.1870035              -5.0886
        28                         -0.1427828              -3.8853
        29                         -0.0538379              -1.4650
        30                          0.1103354               3.0024
        31                          0.1184642               3.2236
        32                          0.1448195               3.9407
        33                          0.1460283               3.9736
        34                          0.1674901               4.5576
        35                          0.1788629               4.8671
       ...                                ...                  ...
        48                          0.6999312              19.0461
      -------------------------------------------------------------
                  HL-Gap            0.1194342 Eh            3.2500 eV
             Fermi-level           -0.3176502 Eh           -8.6437 eV

     #   Z          covCN         q      C6AA      α(0)
     1   6          2.916    -0.030    28.755     8.793
     2   6          2.916    -0.030    28.755     8.793
     3   6          2.918    -0.035    28.875     8.812
     4   6          2.987     0.013    27.714     8.636
     5   6          2.918    -0.035    28.875     8.812
     6   6          2.916    -0.030    28.755     8.793
     7   6          2.916    -0.030    28.755     8.793
     8   6          2.918    -0.035    28.875     8.812
     9   6          2.987     0.013    27.714     8.636
    10   6          2.918    -0.035    28.875     8.812
    11   1          0.926     0.029     2.602     2.522
    12   1          0.926     0.029     2.602     2.522
    13   1          0.926     0.030     2.587     2.515
    14   1          0.926     0.030     2.587     2.515
    15   1          0.926     0.029     2.602     2.522
    16   1          0.926     0.029     2.602     2.522
    17   1          0.926     0.030     2.587     2.515
    18   1          0.926     0.030     2.587     2.515

 Mol. C6AA /au·bohr⁶  :       4401.558549
 Mol. C8AA /au·bohr⁸  :     110435.858461
 Mol. α(0) /au        :        107.841910


Wiberg/Mayer (AO) data.
largest (>0.10) Wiberg bond orders for each atom

 ---------------------------------------------------------------------------
     #   Z sym  total        # sym  WBO       # sym  WBO       # sym  WBO
 ---------------------------------------------------------------------------
     1   6      3.993 --    10      1.558     2      1.320    11      0.971
     2   6      3.993 --     3      1.558     1      1.320    12      0.971
     3   6      3.992 --     2      1.558     4      1.280    13      0.969
                            10      0.119
     4   6      3.991 --     5      1.280     3      1.280     9      1.252
     5   6      3.992 --     6      1.558     4      1.280    14      0.969
                             8      0.119
     6   6      3.993 --     5      1.558     7      1.320    15      0.971
     7   6      3.993 --     8      1.558     6      1.320    16      0.971
     8   6      3.992 --     7      1.558     9      1.280    17      0.969
                             5      0.119
     9   6      3.991 --    10      1.280     8      1.280     4      1.252
    10   6      3.992 --     1      1.558     9      1.280    18      0.969
                             3      0.119
    11   1      0.999 --     1      0.971
    12   1      0.999 --     2      0.971
    13   1      0.999 --     3      0.969
    14   1      0.999 --     5      0.969
    15   1      0.999 --     6      0.971
    16   1      0.999 --     7      0.971
    17   1      0.999 --     8      0.969
    18   1      0.999 --    10      0.969
 ---------------------------------------------------------------------------

Topologies differ in total number of bonds
Writing topology from bond orders to xtbtopo.mol

molecular dipole:
                 x           y           z       tot (Debye)
 q only:       -0.000      -0.000       0.000
   full:       -0.000      -0.000       0.000       0.000
molecular quadrupole (traceless):
                xx          xy          yy          xz          yz          zz
 q only:        0.965       0.000       1.095      -0.003       0.002      -2.060
  q+dip:        4.136       0.000       4.323      -0.013       0.008      -8.459
   full:        1.907       0.000       2.236      -0.006       0.004      -4.142

           -------------------------------------------------
          |                Geometry Summary                 |
           -------------------------------------------------

      molecular mass/u    :      128.1708850
   center of mass at/Å    :       -0.0000761       0.0020133      -0.0025761
  moments of inertia/u·Å² :        0.1596233E+03   0.4047851E+03   0.5644084E+03
rotational constants/cm⁻¹ :        0.1056088E+00   0.4164588E-01   0.2986779E-01

 * 19 selected distances

     #   Z          #   Z                                           value/Å
     1   6          2   6                                         1.4039377
     2   6          3   6                                         1.3664849
     3   6          4   6                                         1.4106104
     4   6          5   6                                         1.4106104
     5   6          6   6                                         1.3664849
     6   6          7   6                                         1.4039376
     7   6          8   6                                         1.3664849
     4   6          9   6                                         1.4196832 (max)
     8   6          9   6                                         1.4106104
     1   6         10   6                                         1.3664849
     9   6         10   6                                         1.4106103
     1   6         11   1                                         1.0804045 (min)
     2   6         12   1                                         1.0804046
     3   6         13   1                                         1.0810640
     5   6         14   1                                         1.0810640
     6   6         15   1                                         1.0804046
     7   6         16   1                                         1.0804046
     8   6         17   1                                         1.0810640
    10   6         18   1                                         1.0810640

 * 2 distinct bonds (by element types)

   Z      Z             #   av. dist./Å        max./Å        min./Å
   1 H    6 C           8     1.0807343     1.0810640     1.0804045
   6 C    6 C          11     1.3941763     1.4196832     1.3664849
Note: The following floating-point exceptions are signalling: IEEE_UNDERFLOW_FLAG
normal termination of xtb


optimized geometry written to: xtbopt.xyz


           -------------------------------------------------
          | TOTAL ENERGY              -25.474386100283 Eh   |
          | GRADIENT NORM               0.000091902113 Eh/α |
          | HOMO-LUMO GAP               3.249969921062 eV   |
           -------------------------------------------------

------------------------------------------------------------------------
 * finished run on 2026/08/28 at 19:10:02.433     
------------------------------------------------------------------------
 total:
 * wall-time:     0 d,  0 h,  0 min,  0.123 sec
 *  cpu-time:     0 d,  0 h,  0 min,  0.113 sec
 * ratio c/w:     0.918 speedup
 SCF:
 * wall-time:     0 d,  0 h,  0 min,  0.015 sec
 *  cpu-time:     0 d,  0 h,  0 min,  0.014 sec
 * ratio c/w:     0.933 speedup
 ANC optimizer:
 * wall-time:     0 d,  0 h,  0 min,  0.095 sec
 *  cpu-time:     0 d,  0 h,  0 min,  0.086 sec
 * ratio c/w:     0.909 speedup

