      -----------------------------------------------------------      
     |                   =====================                   |     
     |                           x T B                           |     
     |                   =====================                   |     
     |                         S. Grimme                         |     
     |          Mulliken Center for Theoretical Chemistry        |     
     |                    University of Bonn                     |     
      -----------------------------------------------------------      

   * xtb version 6.7.1 (unknown) compiled by 'root@buildkitsandbox' on 2026-08-28

   xtb is free software: you can redistribute it and/or modify it under
   the terms of the GNU Lesser General Public License as published by
   the Free Software Foundation, either version 3 of the License, or
   (at your option) any later version.
   
   xtb is distributed in the hope that it will be useful,
   but WITHOUT ANY WARRANTY; without even the implied warranty of
   MERCHANTABILITY or FITNESS FOR A PARTICULAR PURPOSE.  See the
   GNU Lesser General Public License for more details.
   
   Cite this work as:
   * C. Bannwarth, E. Caldeweyher, S. Ehlert, A. Hansen, P. Pracht,
     J. Seibert, S. Spicher, S. Grimme, WIREs Comput. Mol. Sci., 2020, 11,
     e01493. DOI: 10.1002/wcms.1493
   
   for GFN2-xTB:
   * C. Bannwarth, S. Ehlert and S. Grimme., J. Chem. Theory Comput., 2019,
     15, 1652-1671. DOI: 10.1021/acs.jctc.8b01176
   for GFN1-xTB:
   * S. Grimme, C. Bannwarth, P. Shushkov, J. Chem. Theory Comput., 2017,
     13, 1989-2009. DOI: 10.1021/acs.jctc.7b00118
   for GFN0-xTB:
   * P. Pracht, E. Caldeweyher, S. Ehlert, S. Grimme, ChemRxiv, 2019, preprint.
     DOI: 10.26434/chemrxiv.8326202.v1
   for GFN-FF:
   * S. Spicher and S. Grimme, Angew. Chem. Int. Ed., 2020, 59, 15665-15673.
     DOI: 10.1002/anie.202004239
   
   for ALPB and GBSA implicit solvation:
   * S. Ehlert, M. Stahn, S. Spicher, S. Grimme, J. Chem. Theory Comput.,
     2021, 17, 4250-4261. DOI: 10.1021/acs.jctc.1c00471
   
   for ddCOSMO and CPCM-X implicit solvation:
   * M. Stahn, S. Ehlert, S. Grimme, J. Phys. Chem. A,
     2023, XX, XXXX-XXXX. DOI: 10.1021/acs.jpca.3c04382
   
   for DFT-D4:
   * E. Caldeweyher, C. Bannwarth and S. Grimme, J. Chem. Phys., 2017,
     147, 034112. DOI: 10.1063/1.4993215
   * E. Caldeweyher, S. Ehlert, A. Hansen, H. Neugebauer, S. Spicher,
     C. Bannwarth and S. Grimme, J. Chem. Phys., 2019, 150, 154122.
     DOI: 10.1063/1.5090222
   * E. Caldeweyher, J.-M. Mewes, S. Ehlert and S. Grimme, Phys. Chem. Chem. Phys.
     2020, 22, 8499-8512. DOI: 10.1039/D0CP00502A
   
   for sTDA-xTB:
   * S. Grimme and C. Bannwarth, J. Chem. Phys., 2016, 145, 054103.
     DOI: 10.1063/1.4959605
   
   in the mass-spec context:
   * V. Asgeirsson, C. Bauer and S. Grimme, Chem. Sci., 2017, 8, 4879.
     DOI: 10.1039/c7sc00601b
   * J. Koopman and S. Grimme, ACS Omega 2019, 4, 12, 15120-15133.
     DOI: 10.1021/acsomega.9b02011
   
   for metadynamics refer to:
   * S. Grimme, J. Chem. Theory Comput., 2019, 155, 2847-2862
     DOI: 10.1021/acs.jctc.9b00143
   
   for SPH calculations refer to:
   * S. Spicher and S. Grimme, J. Chem. Theory Comput., 2021, 17, 1701-1714
     DOI: 10.1021/acs.jctc.0c01306
   
   for ONIOM refer to:
   * C. Plett, A. Katbashev, S. Ehlert, S. Grimme, M. Bursch,
     Phys. Chem. Chem. Phys., 2023, 25, 17860-17868. DOI: 10.1039/D3CP02178E
   
   for DIPRO refer to:
   * J. Kohn, N. Gildemeister, S. Grimme, D. Fazzi, A. Hansen,
     J. Chem. Phys. 159, 144106 (2023). DOI: 10.1063/5.0167484
   
   for PTB refer to:
   * S. Grimme, M. Mueller, A. Hansen, J. Chem. Phys., 2023, 158, 124111.
     DOI: 10.1063/5.0137838
   
   with help from (in alphabetical order)
   P. Atkinson, C. Bannwarth, F. Bohle, G. Brandenburg, E. Caldeweyher,
   M. Checinski, S. Dohm, S. Ehlert, S. Ehrlich, M. Friede, T. Froitzheim,
   I. Gerasimov, C. Hölzer, A. Katbashev, J. Kohn, J. Koopman, C. Lavigne,
   S. Lehtola, F. März, M. Müller, F. Musil, H. Neugebauer, J. Pisarek,
   C. Plett, P. Pracht, F. Pultar, J. Seibert, P. Shushkov, S. Spicher,
   M. Stahn, M. Steiner, T. Strunk, J. Stückrath, T. Rose, and J. Unsleber
   
 * started run on 2026/08/28 at 19:16:31.264     
   ID    Z sym.   atoms
    1    6 C      1-4, 7-9, 11, 14-20, 22, 23, 28, 29, 31-33
    2    7 N      5, 6, 10, 13, 27, 30
    3    8 O      12, 21, 25, 26
    4   16 S      24
    5    1 H      34-63

           -------------------------------------------------
          |                Calculation Setup                |
           -------------------------------------------------

          program call               : xtb opt.xyz --gfn 2 --hess --norestart
          hostname                   : 756d39058c4f
          coordinate file            : opt.xyz
          random seed                :             312064373


           -------------------------------------------------
          |                 G F N 2 - x T B                 |
           -------------------------------------------------

        Reference                      10.1021/acs.jctc.8b01176
      * Hamiltonian:
        H0-scaling (s, p, d)           1.850000    2.230000    2.230000
        zeta-weighting                 0.500000
      * Dispersion:
        s8                             2.700000
        a1                             0.520000
        a2                             5.000000
        s9                             5.000000
      * Repulsion:
        kExp                           1.500000    1.000000
        rExp                           1.000000
      * Coulomb:
        alpha                          2.000000
        third order                    shell-resolved
        anisotropic                    true
        a3                             3.000000
        a5                             4.000000
        cn-shift                       1.200000
        cn-exp                         4.000000
        max-rad                        5.000000


          ...................................................
          :                      SETUP                      :
          :.................................................:
          :  # basis functions                 168          :
          :  # atomic orbitals                 167          :
          :  # shells                           97          :
          :  # electrons                       178          :
          :  max. iterations                   250          :
          :  Hamiltonian                  GFN2-xTB          :
          :  restarted?                      false          :
          :  GBSA solvation                  false          :
          :  PC potential                    false          :
          :  electronic temp.          300.0000000     K    :
          :  accuracy                    1.0000000          :
          :  -> integral cutoff          0.2500000E+02      :
          :  -> integral neglect         0.1000000E-07      :
          :  -> SCF convergence          0.1000000E-05 Eh   :
          :  -> wf. convergence          0.1000000E-03 e    :
          :  Broyden damping             0.4000000          :
          :  net charge                          0          :
          :  unpaired electrons                  0          :
          ...................................................

 iter      E             dE          RMSdq      gap      omega  full diag
   1   -100.5257640 -0.100526E+03  0.427E+00    2.49       0.0  T
   2   -100.6935214 -0.167757E+00  0.276E+00    1.83       1.0  T
   3   -100.6873379  0.618346E-02  0.164E+00    2.17       1.0  T
   4   -100.7283724 -0.410345E-01  0.777E-01    1.62       1.0  T
   5   -100.7637165 -0.353440E-01  0.226E-01    1.68       1.0  T
   6   -100.7649238 -0.120733E-02  0.120E-01    1.65       1.0  T
   7   -100.7651658 -0.241962E-03  0.613E-02    1.70       1.0  T
   8   -100.7652022 -0.363840E-04  0.304E-02    1.71       1.0  T
   9   -100.7652166 -0.144133E-04  0.144E-02    1.71       1.0  T
  10   -100.7652207 -0.411267E-05  0.544E-03    1.71       2.3  T
  11   -100.7652210 -0.310598E-06  0.300E-03    1.71       4.2  T
  12   -100.7652211 -0.135991E-06  0.108E-03    1.71      11.6  T
  13   -100.7652212 -0.358943E-07  0.331E-04    1.71      38.1  T
  14   -100.7652212 -0.671079E-09  0.176E-04    1.71      71.8  T

   *** convergence criteria satisfied after 14 iterations ***

         #    Occupation            Energy/Eh            Energy/eV
      -------------------------------------------------------------
         1        2.0000           -0.7831938             -21.3118
       ...           ...                  ...                  ...
        83        2.0000           -0.4207556             -11.4493
        84        2.0000           -0.4185756             -11.3900
        85        2.0000           -0.4080715             -11.1042
        86        2.0000           -0.4013688             -10.9218
        87        2.0000           -0.3814497             -10.3798
        88        2.0000           -0.3768198             -10.2538
        89        2.0000           -0.3721586             -10.1270 (HOMO)
        90                         -0.3093105              -8.4168 (LUMO)
        91                         -0.2738739              -7.4525
        92                         -0.2703217              -7.3558
        93                         -0.2135346              -5.8106
        94                         -0.2039526              -5.5498
       ...                                ...                  ...
       167                          1.2343920              33.5895
      -------------------------------------------------------------
                  HL-Gap            0.0628481 Eh            1.7102 eV
             Fermi-level           -0.3407346 Eh           -9.2719 eV

 SCC (total)                   0 d,  0 h,  0 min,  0.358 sec
 SCC setup                      ...        0 min,  0.000 sec (  0.112%)
 Dispersion                     ...        0 min,  0.003 sec (  0.936%)
 classical contributions        ...        0 min,  0.000 sec (  0.031%)
 integral evaluation            ...        0 min,  0.019 sec (  5.218%)
 iterations                     ...        0 min,  0.290 sec ( 81.055%)
 molecular gradient             ...        0 min,  0.043 sec ( 12.103%)
 printout                       ...        0 min,  0.002 sec (  0.538%)

         :::::::::::::::::::::::::::::::::::::::::::::::::::::
         ::                     SUMMARY                     ::
         :::::::::::::::::::::::::::::::::::::::::::::::::::::
         :: total energy             -99.514956157164 Eh    ::
         :: gradient norm              0.000626513452 Eh/a0 ::
         :: HOMO-LUMO gap              1.710183707099 eV    ::
         ::.................................................::
         :: SCC energy              -100.763507531134 Eh    ::
         :: -> isotropic ES            0.138815609958 Eh    ::
         :: -> anisotropic ES          0.002137861240 Eh    ::
         :: -> anisotropic XC          0.045336629329 Eh    ::
         :: -> dispersion             -0.075468945333 Eh    ::
         :: repulsion energy           1.248551373970 Eh    ::
         :: add. restraining           0.000000000000 Eh    ::
         :: total charge              -0.000000000000 e     ::
         :::::::::::::::::::::::::::::::::::::::::::::::::::::

           ------------------------------------------------- 
          |                Numerical Hessian                |
           ------------------------------------------------- 
step length          :   0.00500
SCC accuracy         :   0.30000
Hessian scale factor :   1.00000
frozen atoms in %    :   0.00000    0
RMS gradient         :   0.00063
estimated CPU  time      0.97 min
estimated wall time      0.98 min

writing file <hessian>, containing the non-mass-weighted Hessian matrix in atomic units (Eₕ/Bohr²).

 projected vibrational frequencies (cm⁻¹)
eigval :       -0.00    -0.00    -0.00     0.00     0.00     0.00
eigval :        9.28    13.89    19.02    27.35    37.38    43.45
eigval :       48.39    62.08    68.58    74.28    76.91    84.32
eigval :       95.63    98.55   125.31   138.60   142.47   157.57
eigval :      171.07   175.49   176.54   195.53   204.50   211.24
eigval :      214.96   221.85   230.14   235.48   239.55   251.03
eigval :      265.25   279.05   301.14   310.46   321.50   328.31
eigval :      355.54   367.56   376.88   391.94   410.29   429.81
eigval :      431.02   444.68   464.58   466.54   474.60   497.71
eigval :      521.43   531.61   533.95   556.18   573.73   605.52
eigval :      621.31   647.64   658.48   683.42   685.08   703.09
eigval :      714.88   722.75   729.76   752.94   788.78   790.18
eigval :      830.47   835.48   843.10   855.99   863.76   895.04
eigval :      896.35   920.98   921.34   940.40   945.14   975.87
eigval :      980.26  1013.83  1023.70  1035.02  1054.55  1067.71
eigval :     1068.53  1069.47  1074.46  1077.20  1083.91  1094.10
eigval :     1101.42  1102.72  1111.70  1114.05  1118.90  1132.03
eigval :     1138.69  1146.14  1155.62  1159.09  1163.66  1166.69
eigval :     1212.43  1215.40  1222.98  1229.52  1244.35  1248.55
eigval :     1259.20  1266.76  1271.10  1273.68  1273.94  1274.15
eigval :     1281.70  1301.38  1316.44  1326.61  1328.19  1332.07
eigval :     1337.09  1350.42  1354.75  1357.10  1376.44  1382.26
eigval :     1397.74  1400.41  1408.60  1414.52  1417.76  1451.97
eigval :     1452.08  1453.47  1456.93  1458.55  1461.70  1467.14
eigval :     1469.04  1471.97  1472.88  1488.43  1489.39  1490.18
eigval :     1490.27  1502.60  1503.99  1524.69  1554.44  1565.72
eigval :     1578.58  1621.70  1779.96  2823.05  2826.49  2840.17
eigval :     2848.86  2866.24  2919.26  2943.23  2963.91  2972.59
eigval :     2974.48  2975.08  2975.34  2988.33  2993.79  3004.84
eigval :     3006.32  3008.03  3019.72  3021.31  3030.34  3038.92
eigval :     3042.68  3048.40  3052.57  3057.29  3059.71  3097.52
eigval :     3108.00  3117.90  3388.75
           -------------------------------------------------
          |                Property Printout                |
           -------------------------------------------------

    * Orbital Energies and Occupations

         #    Occupation            Energy/Eh            Energy/eV
      -------------------------------------------------------------
         1        2.0000           -0.7831940             -21.3118
       ...           ...                  ...                  ...
        77        2.0000           -0.4468747             -12.1601
        78        2.0000           -0.4465291             -12.1507
        79        2.0000           -0.4422414             -12.0340
        80        2.0000           -0.4363788             -11.8745
        81        2.0000           -0.4266075             -11.6086
        82        2.0000           -0.4251265             -11.5683
        83        2.0000           -0.4207548             -11.4493
        84        2.0000           -0.4185739             -11.3900
        85        2.0000           -0.4080698             -11.1041
        86        2.0000           -0.4013687             -10.9218
        87        2.0000           -0.3814481             -10.3797
        88        2.0000           -0.3768185             -10.2538
        89        2.0000           -0.3721588             -10.1270 (HOMO)
        90                         -0.3093095              -8.4167 (LUMO)
        91                         -0.2738735              -7.4525
        92                         -0.2703209              -7.3558
        93                         -0.2135331              -5.8105
        94                         -0.2039521              -5.5498
        95                         -0.1563832              -4.2554
        96                         -0.1279439              -3.4815
        97                         -0.1163915              -3.1672
        98                         -0.0825642              -2.2467
        99                         -0.0582545              -1.5852
       100                         -0.0552990              -1.5048
       ...                                ...                  ...
       167                          1.2343938              33.5896
      -------------------------------------------------------------
                  HL-Gap            0.0628494 Eh            1.7102 eV
             Fermi-level           -0.3407342 Eh           -9.2718 eV

     #   Z          covCN         q      C6AA      α(0)
     1   6          3.752    -0.105    22.556     6.773
     2   6          3.803    -0.054    21.541     6.608
     3   6          3.806    -0.063    21.712     6.633
     4   6          3.060     0.059    26.614     8.460
     5   7          2.009    -0.205    26.223     7.595
     6   7          2.948     0.046    20.439     6.715
     7   6          3.690    -0.059    21.828     6.687
     8   6          3.047    -0.004    28.074     8.690
     9   6          3.044     0.081    26.164     8.389
    10   7          1.830    -0.281    28.123     7.858
    11   6          2.743     0.336    21.293     7.555
    12   8          0.859    -0.435    22.392     6.344
    13   7          2.713    -0.158    24.420     7.339
    14   6          2.897     0.080    26.207     8.393
    15   6          2.972    -0.031    28.781     8.800
    16   6          2.969    -0.034    28.846     8.810
    17   6          2.967    -0.102    30.560     9.068
    18   6          2.951    -0.026    28.662     8.781
    19   6          2.923    -0.049    29.223     8.865
    20   6          2.854     0.150    24.735     8.152
    21   8          1.706    -0.264    18.377     5.788
    22   6          3.683     0.085    19.367     6.302
    23   6          3.751    -0.117    22.801     6.810
    24  16          3.885     1.080   104.385    17.196
    25   8          0.860    -0.549    24.899     6.690
    26   8          0.860    -0.550    24.930     6.694
    27   7          2.739    -0.267    26.915     7.705
    28   6          3.854     0.010    20.365     6.418
    29   6          3.773     0.009    20.460     6.445
    30   7          2.729    -0.175    24.792     7.395
    31   6          3.713    -0.038    21.385     6.607
    32   6          3.773     0.009    20.463     6.446
    33   6          3.852     0.008    20.406     6.425
    34   1          0.925     0.038     2.476     2.461
    35   1          0.925     0.040     2.452     2.449
    36   1          0.925     0.035     2.515     2.480
    37   1          0.924     0.054     2.267     2.354
    38   1          0.924     0.029     2.601     2.522
    39   1          0.924     0.055     2.264     2.353
    40   1          0.924     0.058     2.218     2.329
    41   1          0.925     0.090     1.876     2.142
    42   1          0.924     0.051     2.309     2.376
    43   1          0.924     0.066     2.133     2.284
    44   1          0.860     0.199     1.110     1.650
    45   1          0.926     0.066     2.131     2.283
    46   1          0.926     0.070     2.084     2.257
    47   1          0.926     0.075     2.030     2.228
    48   1          0.924     0.033     2.540     2.492
    49   1          0.924     0.039     2.456     2.451
    50   1          0.925     0.060     2.200     2.319
    51   1          0.925     0.058     2.224     2.332
    52   1          0.925     0.063     2.162     2.299
    53   1          0.923     0.019     2.744     2.591
    54   1          0.925     0.062     2.176     2.307
    55   1          0.924     0.048     2.347     2.396
    56   1          0.923     0.029     2.598     2.521
    57   1          0.925     0.046     2.367     2.406
    58   1          0.923     0.020     2.736     2.587
    59   1          0.925     0.046     2.369     2.407
    60   1          0.924     0.048     2.348     2.396
    61   1          0.923     0.029     2.603     2.523
    62   1          0.923     0.024     2.668     2.554
    63   1          0.925     0.063     2.166     2.301

 Mol. C6AA /au·bohr⁶  :      44990.615367
 Mol. C8AA /au·bohr⁸  :    1068876.592133
 Mol. α(0) /au        :        324.488085


Wiberg/Mayer (AO) data.
largest (>0.10) Wiberg bond orders for each atom

 ---------------------------------------------------------------------------
     #   Z sym  total        # sym  WBO       # sym  WBO       # sym  WBO
 ---------------------------------------------------------------------------
     1   6      3.995 --     2      1.019    36      0.988    35      0.987
                            34      0.986
     2   6      3.993 --     1      1.019     3      0.987    38      0.980
                            37      0.976
     3   6      3.993 --     4      1.022     2      0.987    39      0.973
                            40      0.957
     4   6      3.972 --     5      1.558     9      1.172     3      1.022
                             6      0.110
     5   7      2.998 --     4      1.558     6      1.177
     6   7      3.593 --     5      1.177     8      1.157     7      1.002
                             4      0.110
     7   6      3.965 --     6      1.002    41      0.976    42      0.975
                            43      0.970
     8   6      3.960 --    14      1.376     6      1.157     9      1.142
     9   6      3.975 --    10      1.433     4      1.172     8      1.142
    10   7      3.072 --     9      1.433    11      1.233    12      0.120
                            14      0.105
    11   6      3.946 --    12      1.665    10      1.233    13      0.963
    12   8      2.007 --    11      1.665    13      0.138    10      0.120
    13   7      3.553 --    14      1.298    11      0.963    44      0.928
                            12      0.138
    14   6      3.969 --     8      1.376    13      1.298    15      1.024
                            10      0.105
    15   6      3.982 --    16      1.383    20      1.322    14      1.024
    16   6      3.985 --    17      1.441    15      1.383    45      0.962
                            19      0.104
    17   6      3.968 --    16      1.441    18      1.387    24      0.745
    18   6      3.981 --    19      1.476    17      1.387    46      0.963
    19   6      3.984 --    18      1.476    20      1.340    47      0.963
                            16      0.104
    20   6      3.941 --    19      1.340    15      1.322    21      1.093
    21   8      2.247 --    20      1.093    22      0.946
    22   6      3.936 --    23      1.013    48      0.969    49      0.966
                            21      0.946
    23   6      3.988 --    22      1.013    50      0.986    52      0.985
                            51      0.982
    24  16      5.064 --    25      1.646    26      1.646    27      0.953
                            17      0.745
    25   8      1.944 --    24      1.646    26      0.109
    26   8      1.944 --    24      1.646    25      0.109
    27   7      3.238 --    28      0.993    33      0.992    24      0.953
    28   6      3.973 --    29      0.996    27      0.993    54      0.970
                            53      0.966
    29   6      3.987 --    30      1.005    28      0.996    55      0.971
                            56      0.963
    30   7      3.118 --    31      1.012    29      1.005    32      1.005
    31   6      3.983 --    30      1.012    59      0.982    57      0.982
                            58      0.974
    32   6      3.987 --    30      1.005    33      0.996    60      0.971
                            61      0.963
    33   6      3.972 --    32      0.996    27      0.992    63      0.969
                            62      0.966
    34   1      0.998 --     1      0.986
    35   1      0.998 --     1      0.987
    36   1      0.999 --     1      0.988
    37   1      0.997 --     2      0.976
    38   1      0.999 --     2      0.980
    39   1      0.996 --     3      0.973
    40   1      0.996 --     3      0.957
    41   1      0.991 --     7      0.976
    42   1      0.996 --     7      0.975
    43   1      0.993 --     7      0.970
    44   1      0.960 --    13      0.928
    45   1      0.996 --    16      0.962
    46   1      0.994 --    18      0.963
    47   1      0.992 --    19      0.963
    48   1      0.999 --    22      0.969
    49   1      0.997 --    22      0.966
    50   1      0.996 --    23      0.986
    51   1      0.996 --    23      0.982
    52   1      0.996 --    23      0.985
    53   1      1.000 --    28      0.966
    54   1      0.996 --    28      0.970
    55   1      0.997 --    29      0.971
    56   1      0.999 --    29      0.963
    57   1      0.998 --    31      0.982
    58   1      1.000 --    31      0.974
    59   1      0.998 --    31      0.982
    60   1      0.997 --    32      0.971
    61   1      0.999 --    32      0.963
    62   1      0.999 --    33      0.966
    63   1      0.996 --    33      0.969
 ---------------------------------------------------------------------------

Topologies differ in total number of bonds
Writing topology from bond orders to xtbtopo.mol

molecular dipole:
                 x           y           z       tot (Debye)
 q only:        0.254       3.938       0.194
   full:        0.942       3.656       0.102       9.599
molecular quadrupole (traceless):
                xx          xy          yy          xz          yz          zz
 q only:        5.837     101.133     -46.413       3.604      -1.197      40.576
  q+dip:       23.849      88.477     -58.146       0.638       2.333      34.297
   full:       22.220      89.132     -59.447       0.118       0.396      37.227

           -------------------------------------------------
          |               Frequency Printout                |
           -------------------------------------------------
 projected vibrational frequencies (cm⁻¹)
eigval :       -0.00    -0.00    -0.00     0.00     0.00     0.00
eigval :        9.28    13.89    19.02    27.35    37.38    43.45
eigval :       48.39    62.08    68.58    74.28    76.91    84.32
eigval :       95.63    98.55   125.31   138.60   142.47   157.57
eigval :      171.07   175.49   176.54   195.53   204.50   211.24
eigval :      214.96   221.85   230.14   235.48   239.55   251.03
eigval :      265.25   279.05   301.14   310.46   321.50   328.31
eigval :      355.54   367.56   376.88   391.94   410.29   429.81
eigval :      431.02   444.68   464.58   466.54   474.60   497.71
eigval :      521.43   531.61   533.95   556.18   573.73   605.52
eigval :      621.31   647.64   658.48   683.42   685.08   703.09
eigval :      714.88   722.75   729.76   752.94   788.78   790.18
eigval :      830.47   835.48   843.10   855.99   863.76   895.04
eigval :      896.35   920.98   921.34   940.40   945.14   975.87
eigval :      980.26  1013.83  1023.70  1035.02  1054.55  1067.71
eigval :     1068.53  1069.47  1074.46  1077.20  1083.91  1094.10
eigval :     1101.42  1102.72  1111.70  1114.05  1118.90  1132.03
eigval :     1138.69  1146.14  1155.62  1159.09  1163.66  1166.69
eigval :     1212.43  1215.40  1222.98  1229.52  1244.35  1248.55
eigval :     1259.20  1266.76  1271.10  1273.68  1273.94  1274.15
eigval :     1281.70  1301.38  1316.44  1326.61  1328.19  1332.07
eigval :     1337.09  1350.42  1354.75  1357.10  1376.44  1382.26
eigval :     1397.74  1400.41  1408.60  1414.52  1417.76  1451.97
eigval :     1452.08  1453.47  1456.93  1458.55  1461.70  1467.14
eigval :     1469.04  1471.97  1472.88  1488.43  1489.39  1490.18
eigval :     1490.27  1502.60  1503.99  1524.69  1554.44  1565.72
eigval :     1578.58  1621.70  1779.96  2823.05  2826.49  2840.17
eigval :     2848.86  2866.24  2919.26  2943.23  2963.91  2972.59
eigval :     2974.48  2975.08  2975.34  2988.33  2993.79  3004.84
eigval :     3006.32  3008.03  3019.72  3021.31  3030.34  3038.92
eigval :     3042.68  3048.40  3052.57  3057.29  3059.71  3097.52
eigval :     3108.00  3117.90  3388.75
 reduced masses (amu)
    1:      6.09    2:      7.07    3:      6.64    4:      6.43    5:      6.17    6:      7.15
    7:      4.86    8:      5.87    9:      4.09   10:      4.53   11:      3.85   12:      3.67
   13:      2.90   14:      3.68   15:      4.44   16:      2.31   17:      3.42   18:      2.97
   19:      2.68   20:      3.41   21:      4.45   22:      1.43   23:      4.97   24:      3.81
   25:      4.35   26:      2.54   27:      3.44   28:      5.20   29:      1.84   30:      1.71
   31:      2.36   32:      3.11   33:      2.58   34:      1.41   35:      1.69   36:      2.78
   37:      3.97   38:      5.74   39:      5.53   40:      3.36   41:      3.88   42:      4.15
   43:      3.17   44:      3.54   45:      4.20   46:      6.82   47:      2.09   48:      6.34
   49:      5.37   50:      6.48   51:      7.95   52:      5.36   53:      3.05   54:      6.76
   55:      9.80   56:      5.67   57:      4.84   58:      5.50   59:      3.84   60:      6.85
   61:      7.37   62:      6.13   63:      3.10   64:      3.99   65:      3.57   66:      7.05
   67:      2.74   68:      9.48   69:      3.60   70:      6.30   71:      1.14   72:      4.98
   73:      2.79   74:      1.52   75:      1.38   76:      2.32   77:      1.46   78:      1.22
   79:      1.30   80:      3.66   81:      1.29   82:      2.29   83:      2.28   84:      1.93
   85:      2.99   86:      4.15   87:      2.36   88:      2.04   89:      1.61   90:      1.60
   91:      2.39   92:      3.80   93:      4.90   94:      1.57   95:      1.54   96:      2.58
   97:      1.47   98:      1.84   99:      2.16  100:      1.66  101:      2.18  102:      3.19
  103:      1.44  104:      1.94  105:      2.61  106:      1.52  107:      1.31  108:      2.46
  109:      2.38  110:      1.30  111:      1.44  112:      2.60  113:      4.04  114:      3.04
  115:      1.30  116:      2.70  117:      1.15  118:      1.59  119:      1.47  120:      3.68
  121:      1.47  122:      4.42  123:      1.34  124:      6.38  125:      1.34  126:      1.45
  127:      1.31  128:      1.91  129:      1.45  130:      3.60  131:      5.89  132:      5.21
  133:      1.56  134:      1.27  135:      3.13  136:      1.25  137:      1.17  138:      1.17
  139:      1.09  140:      1.28  141:      1.18  142:      1.89  143:      1.09  144:      1.09
  145:      1.10  146:      1.05  147:      1.07  148:      1.06  149:      1.05  150:      1.06
  151:      1.09  152:      1.06  153:      1.06  154:      9.26  155:      9.37  156:     10.96
  157:      9.14  158:     11.78  159:     11.94  160:      1.07  161:      1.07  162:      1.07
  163:      1.07  164:      1.07  165:      1.09  166:      1.05  167:      1.08  168:      1.09
  169:      1.07  170:      1.07  171:      1.08  172:      1.05  173:      1.06  174:      1.07
  175:      1.07  176:      1.07  177:      1.09  178:      1.05  179:      1.08  180:      1.09
  181:      1.04  182:      1.07  183:      1.07  184:      1.05  185:      1.09  186:      1.08
  187:      1.08  188:      1.09  189:      1.07
 IR intensities (km·mol⁻¹)
    1:      0.32    2:      0.73    3:      0.26    4:      0.16    5:      0.33    6:      0.06
    7:      0.13    8:      0.83    9:      0.40   10:      0.26   11:      3.36   12:      0.98
   13:      0.37   14:      0.34   15:      4.01   16:      0.99   17:      0.40   18:      1.14
   19:      0.32   20:      1.62   21:      2.12   22:      2.47   23:      3.35   24:      1.00
   25:      1.01   26:      4.74   27:      0.70   28:      1.28   29:      0.51   30:      0.72
   31:      1.15   32:      2.27   33:      3.01   34:      0.17   35:      0.13   36:      4.81
   37:      1.05   38:      1.85   39:      2.25   40:      0.59   41:      1.28   42:      0.96
   43:      3.10   44:     14.63   45:      2.54   46:      2.06   47:      1.90   48:      2.56
   49:      1.46   50:     10.30   51:     85.60   52:     12.37   53:      2.09   54:     35.83
   55:    198.56   56:      7.33   57:      8.00   58:      4.30   59:     80.79   60:     38.58
   61:      7.82   62:     11.85   63:      2.82   64:      3.12   65:      9.36   66:      7.33
   67:     93.80   68:     14.11   69:    218.29   70:     18.63   71:      7.80   72:     21.63
   73:      7.43   74:     16.41   75:     20.53   76:     27.26   77:      0.19   78:      0.57
   79:      1.13   80:     25.04   81:      0.81   82:      1.59   83:     14.21   84:      1.42
   85:    100.32   86:     22.41   87:     25.18   88:     34.23   89:      0.21   90:      4.43
   91:      9.37   92:     22.21   93:     56.24   94:     38.74   95:      7.55   96:      1.92
   97:     23.99   98:     51.18   99:     45.78  100:     40.60  101:     27.85  102:    357.96
  103:      9.70  104:     10.39  105:      9.64  106:      0.39  107:      8.14  108:     29.99
  109:     34.39  110:     25.44  111:      2.88  112:     23.98  113:     18.55  114:    133.96
  115:     39.38  116:    170.43  117:      0.90  118:     44.09  119:     46.51  120:    181.93
  121:      3.04  122:    173.17  123:      9.93  124:     87.87  125:      3.98  126:     18.39
  127:      4.51  128:     16.86  129:      3.99  130:     33.34  131:     48.18  132:     98.32
  133:     37.78  134:     10.09  135:     44.52  136:      1.72  137:      0.78  138:     17.93
  139:      1.55  140:     58.15  141:     20.79  142:     33.97  143:      1.57  144:      6.18
  145:      2.22  146:      4.08  147:      4.47  148:      2.30  149:      7.69  150:      1.77
  151:      4.18  152:      3.27  153:      2.05  154:    328.20  155:     85.64  156:    210.56
  157:     16.49  158:     38.03  159:   1105.50  160:     17.13  161:     23.46  162:     36.90
  163:    105.79  164:    152.64  165:     25.29  166:     30.81  167:      1.43  168:     11.22
  169:     15.05  170:     38.20  171:     61.77  172:     14.10  173:      5.75  174:     18.64
  175:      3.69  176:     20.16  177:     38.90  178:     33.76  179:     55.44  180:     44.03
  181:     33.41  182:      1.99  183:     16.69  184:     12.82  185:     17.75  186:      2.51
  187:      2.05  188:      4.95  189:     36.29
 Raman intensities (Ä⁴*amu⁻¹)
    1:      0.00    2:      0.00    3:      0.00    4:      0.00    5:      0.00    6:      0.00
    7:      0.00    8:      0.00    9:      0.00   10:      0.00   11:      0.00   12:      0.00
   13:      0.00   14:      0.00   15:      0.00   16:      0.00   17:      0.00   18:      0.00
   19:      0.00   20:      0.00   21:      0.00   22:      0.00   23:      0.00   24:      0.00
   25:      0.00   26:      0.00   27:      0.00   28:      0.00   29:      0.00   30:      0.00
   31:      0.00   32:      0.00   33:      0.00   34:      0.00   35:      0.00   36:      0.00
   37:      0.00   38:      0.00   39:      0.00   40:      0.00   41:      0.00   42:      0.00
   43:      0.00   44:      0.00   45:      0.00   46:      0.00   47:      0.00   48:      0.00
   49:      0.00   50:      0.00   51:      0.00   52:      0.00   53:      0.00   54:      0.00
   55:      0.00   56:      0.00   57:      0.00   58:      0.00   59:      0.00   60:      0.00
   61:      0.00   62:      0.00   63:      0.00   64:      0.00   65:      0.00   66:      0.00
   67:      0.00   68:      0.00   69:      0.00   70:      0.00   71:      0.00   72:      0.00
   73:      0.00   74:      0.00   75:      0.00   76:      0.00   77:      0.00   78:      0.00
   79:      0.00   80:      0.00   81:      0.00   82:      0.00   83:      0.00   84:      0.00
   85:      0.00   86:      0.00   87:      0.00   88:      0.00   89:      0.00   90:      0.00
   91:      0.00   92:      0.00   93:      0.00   94:      0.00   95:      0.00   96:      0.00
   97:      0.00   98:      0.00   99:      0.00  100:      0.00  101:      0.00  102:      0.00
  103:      0.00  104:      0.00  105:      0.00  106:      0.00  107:      0.00  108:      0.00
  109:      0.00  110:      0.00  111:      0.00  112:      0.00  113:      0.00  114:      0.00
  115:      0.00  116:      0.00  117:      0.00  118:      0.00  119:      0.00  120:      0.00
  121:      0.00  122:      0.00  123:      0.00  124:      0.00  125:      0.00  126:      0.00
  127:      0.00  128:      0.00  129:      0.00  130:      0.00  131:      0.00  132:      0.00
  133:      0.00  134:      0.00  135:      0.00  136:      0.00  137:      0.00  138:      0.00
  139:      0.00  140:      0.00  141:      0.00  142:      0.00  143:      0.00  144:      0.00
  145:      0.00  146:      0.00  147:      0.00  148:      0.00  149:      0.00  150:      0.00
  151:      0.00  152:      0.00  153:      0.00  154:      0.00  155:      0.00  156:      0.00
  157:      0.00  158:      0.00  159:      0.00  160:      0.00  161:      0.00  162:      0.00
  163:      0.00  164:      0.00  165:      0.00  166:      0.00  167:      0.00  168:      0.00
  169:      0.00  170:      0.00  171:      0.00  172:      0.00  173:      0.00  174:      0.00
Refinement of some symmetry elements was terminated before convergence was reached.
Some symmetry elements may remain unidentified.
Molecule has no symmetry elements
It seems to be the C1 point group
  175:      0.00  176:      0.00  177:      0.00  178:      0.00  179:      0.00  180:      0.00
  181:      0.00  182:      0.00  183:      0.00  184:      0.00  185:      0.00  186:      0.00
  187:      0.00  188:      0.00  189:      0.00
 output can be read by thermo (or use thermo option).
 writing <g98.out> molden fake output.
 recommended (thermochemical) frequency scaling factor: 1.0
           -------------------------------------------------
          |             Thermodynamic Functions             |
           -------------------------------------------------

c1  symmetry found (for desy threshold:  0.10E+00) used in thermo

          ...................................................
          :                      SETUP                      :
          :.................................................:
          :  # frequencies                         183      :
          :  # imaginary freq.                       0      :
          :  linear?                             false      :
          :  only rotor calc.                    false      :
          :  symmetry                               c1      :
          :  rotational number                       1      :
          :  scaling factor                  1.0000000      :
          :  rotor cutoff                   50.0000000 cm⁻¹ :
          :  imag. cutoff                  -20.0000000 cm⁻¹ :
          :.................................................:

    mode    ω/cm⁻¹     T·S(HO)/kcal·mol⁻¹    T·S(FR)/kcal·mol⁻¹   T·S(vib)
   ------------------------------------------------------------------------
       1      9.28    -2.43267 (  0.12%)    -1.55534 ( 99.88%)    -1.55638
       2     13.89    -2.19393 (  0.59%)    -1.43597 ( 99.41%)    -1.44046
       3     19.02    -2.00774 (  2.05%)    -1.34284 ( 97.95%)    -1.35648
       4     27.35    -1.79270 (  8.22%)    -1.23522 ( 91.78%)    -1.28104
       5     37.38    -1.60803 ( 23.80%)    -1.14271 ( 76.20%)    -1.25346
       6     43.45    -1.51912 ( 36.32%)    -1.09812 ( 63.68%)    -1.25103
       7     48.39    -1.45562 ( 46.73%)    -1.06624 ( 53.27%)    -1.24819
       8     62.08    -1.30882 ( 70.39%)    -0.99241 ( 29.61%)    -1.21513
       9     68.58    -1.25038 ( 77.97%)    -0.96295 ( 22.03%)    -1.18705
      10     74.28    -1.20353 ( 82.96%)    -0.93929 ( 17.04%)    -1.15852
      11     76.91    -1.18314 ( 84.84%)    -0.92898 ( 15.16%)    -1.14461
      12     84.32    -1.12932 ( 89.00%)    -0.90173 ( 11.00%)    -1.10427
      13     95.63    -1.05588 ( 93.05%)    -0.86443 (  6.95%)    -1.04257
      14     98.55    -1.03840 ( 93.79%)    -0.85553 (  6.21%)    -1.02703
      15    125.31    -0.89947 ( 97.53%)    -0.78437 (  2.47%)    -0.89662
      16    138.60    -0.84172 ( 98.33%)    -0.75451 (  1.67%)    -0.84027
      17    142.47    -0.82600 ( 98.51%)    -0.74634 (  1.49%)    -0.82481
      18    157.57    -0.76886 ( 99.00%)    -0.71650 (  1.00%)    -0.76833
      19    171.07    -0.72263 ( 99.28%)    -0.69216 (  0.72%)    -0.72241
      20    175.49    -0.70838 ( 99.35%)    -0.68460 (  0.65%)    -0.70822
      21    176.54    -0.70503 ( 99.36%)    -0.68283 (  0.64%)    -0.70489
      22    195.53    -0.64839 ( 99.57%)    -0.65256 (  0.43%)    -0.64841
      23    204.50    -0.62380 ( 99.64%)    -0.63928 (  0.36%)    -0.62385
      24    211.24    -0.60611 ( 99.69%)    -0.62966 (  0.31%)    -0.60618
      25    214.96    -0.59664 ( 99.71%)    -0.62450 (  0.29%)    -0.59672
      26    221.85    -0.57957 ( 99.74%)    -0.61515 (  0.26%)    -0.57967
      27    230.14    -0.55989 ( 99.78%)    -0.60429 (  0.22%)    -0.55999
      28    235.48    -0.54763 ( 99.80%)    -0.59749 (  0.20%)    -0.54773
      29    239.55    -0.53852 ( 99.81%)    -0.59241 (  0.19%)    -0.53862
      30    251.03    -0.51381 ( 99.84%)    -0.57855 (  0.16%)    -0.51391
      31    265.25    -0.48508 ( 99.87%)    -0.56222 (  0.13%)    -0.48518
      32    279.05    -0.45900 ( 99.90%)    -0.54720 (  0.10%)    -0.45909
   ------------------------------------------------------------------------
Note: The following floating-point exceptions are signalling: IEEE_UNDERFLOW_FLAG
normal termination of xtb

   temp. (K)  partition function   enthalpy   heat capacity  entropy
                                   cal/mol     cal/K/mol   cal/K/mol   J/K/mol
 298.15  VIB  0.583E+16            19401.450    112.684    124.071
         ROT  0.309E+08              888.727      2.981     37.252
         INT  0.180E+24            20290.178    115.664    161.322
         TR   0.316E+27             1481.212      4.968     44.360
         TOT                       21771.3901   120.6323   205.6822   860.5745

       T/K    H(0)-H(T)+PV         H(T)/Eh          T*S/Eh         G(T)/Eh
   ------------------------------------------------------------------------
    298.15    0.346949E-01    0.537851E+00    0.977263E-01    0.440124E+00
   ------------------------------------------------------------------------

         :::::::::::::::::::::::::::::::::::::::::::::::::::::
         ::                  THERMODYNAMIC                  ::
         :::::::::::::::::::::::::::::::::::::::::::::::::::::
         :: total free energy         -99.074831878901 Eh   ::
         ::.................................................::
         :: total energy              -99.514956157878 Eh   ::
         :: zero point energy           0.503155633606 Eh   ::
         :: G(RRHO) w/o ZPVE           -0.063031354629 Eh   ::
         :: G(RRHO) contrib.            0.440124278977 Eh   ::
         :::::::::::::::::::::::::::::::::::::::::::::::::::::

           -------------------------------------------------
          | TOTAL ENERGY              -99.514956157878 Eh   |
          | TOTAL ENTHALPY            -98.977105605741 Eh   |
          | TOTAL FREE ENERGY         -99.074831878901 Eh   |
          | GRADIENT NORM               0.000626314406 Eh/α |
          | HOMO-LUMO GAP               1.710217868327 eV   |
           -------------------------------------------------

------------------------------------------------------------------------
 * finished run on 2026/08/28 at 19:17:29.646     
------------------------------------------------------------------------
 total:
 * wall-time:     0 d,  0 h,  0 min, 58.393 sec
 *  cpu-time:     0 d,  0 h,  0 min, 58.248 sec
 * ratio c/w:     0.998 speedup
 SCF:
 * wall-time:     0 d,  0 h,  0 min,  0.358 sec
 *  cpu-time:     0 d,  0 h,  0 min,  0.313 sec
 * ratio c/w:     0.875 speedup
 analytical hessian:
 * wall-time:     0 d,  0 h,  0 min, 57.945 sec
 *  cpu-time:     0 d,  0 h,  0 min, 57.876 sec
 * ratio c/w:     0.999 speedup

