      -----------------------------------------------------------      
     |                   =====================                   |     
     |                           x T B                           |     
     |                   =====================                   |     
     |                         S. Grimme                         |     
     |          Mulliken Center for Theoretical Chemistry        |     
     |                    University of Bonn                     |     
      -----------------------------------------------------------      

   * xtb version 6.7.1 (unknown) compiled by 'root@buildkitsandbox' on 2026-08-28

   xtb is free software: you can redistribute it and/or modify it under
   the terms of the GNU Lesser General Public License as published by
   the Free Software Foundation, either version 3 of the License, or
   (at your option) any later version.
   
   xtb is distributed in the hope that it will be useful,
   but WITHOUT ANY WARRANTY; without even the implied warranty of
   MERCHANTABILITY or FITNESS FOR A PARTICULAR PURPOSE.  See the
   GNU Lesser General Public License for more details.
   
   Cite this work as:
   * C. Bannwarth, E. Caldeweyher, S. Ehlert, A. Hansen, P. Pracht,
     J. Seibert, S. Spicher, S. Grimme, WIREs Comput. Mol. Sci., 2020, 11,
     e01493. DOI: 10.1002/wcms.1493
   
   for GFN2-xTB:
   * C. Bannwarth, S. Ehlert and S. Grimme., J. Chem. Theory Comput., 2019,
     15, 1652-1671. DOI: 10.1021/acs.jctc.8b01176
   for GFN1-xTB:
   * S. Grimme, C. Bannwarth, P. Shushkov, J. Chem. Theory Comput., 2017,
     13, 1989-2009. DOI: 10.1021/acs.jctc.7b00118
   for GFN0-xTB:
   * P. Pracht, E. Caldeweyher, S. Ehlert, S. Grimme, ChemRxiv, 2019, preprint.
     DOI: 10.26434/chemrxiv.8326202.v1
   for GFN-FF:
   * S. Spicher and S. Grimme, Angew. Chem. Int. Ed., 2020, 59, 15665-15673.
     DOI: 10.1002/anie.202004239
   
   for ALPB and GBSA implicit solvation:
   * S. Ehlert, M. Stahn, S. Spicher, S. Grimme, J. Chem. Theory Comput.,
     2021, 17, 4250-4261. DOI: 10.1021/acs.jctc.1c00471
   
   for ddCOSMO and CPCM-X implicit solvation:
   * M. Stahn, S. Ehlert, S. Grimme, J. Phys. Chem. A,
     2023, XX, XXXX-XXXX. DOI: 10.1021/acs.jpca.3c04382
   
   for DFT-D4:
   * E. Caldeweyher, C. Bannwarth and S. Grimme, J. Chem. Phys., 2017,
     147, 034112. DOI: 10.1063/1.4993215
   * E. Caldeweyher, S. Ehlert, A. Hansen, H. Neugebauer, S. Spicher,
     C. Bannwarth and S. Grimme, J. Chem. Phys., 2019, 150, 154122.
     DOI: 10.1063/1.5090222
   * E. Caldeweyher, J.-M. Mewes, S. Ehlert and S. Grimme, Phys. Chem. Chem. Phys.
     2020, 22, 8499-8512. DOI: 10.1039/D0CP00502A
   
   for sTDA-xTB:
   * S. Grimme and C. Bannwarth, J. Chem. Phys., 2016, 145, 054103.
     DOI: 10.1063/1.4959605
   
   in the mass-spec context:
   * V. Asgeirsson, C. Bauer and S. Grimme, Chem. Sci., 2017, 8, 4879.
     DOI: 10.1039/c7sc00601b
   * J. Koopman and S. Grimme, ACS Omega 2019, 4, 12, 15120-15133.
     DOI: 10.1021/acsomega.9b02011
   
   for metadynamics refer to:
   * S. Grimme, J. Chem. Theory Comput., 2019, 155, 2847-2862
     DOI: 10.1021/acs.jctc.9b00143
   
   for SPH calculations refer to:
   * S. Spicher and S. Grimme, J. Chem. Theory Comput., 2021, 17, 1701-1714
     DOI: 10.1021/acs.jctc.0c01306
   
   for ONIOM refer to:
   * C. Plett, A. Katbashev, S. Ehlert, S. Grimme, M. Bursch,
     Phys. Chem. Chem. Phys., 2023, 25, 17860-17868. DOI: 10.1039/D3CP02178E
   
   for DIPRO refer to:
   * J. Kohn, N. Gildemeister, S. Grimme, D. Fazzi, A. Hansen,
     J. Chem. Phys. 159, 144106 (2023). DOI: 10.1063/5.0167484
   
   for PTB refer to:
   * S. Grimme, M. Mueller, A. Hansen, J. Chem. Phys., 2023, 158, 124111.
     DOI: 10.1063/5.0137838
   
   with help from (in alphabetical order)
   P. Atkinson, C. Bannwarth, F. Bohle, G. Brandenburg, E. Caldeweyher,
   M. Checinski, S. Dohm, S. Ehlert, S. Ehrlich, M. Friede, T. Froitzheim,
   I. Gerasimov, C. Hölzer, A. Katbashev, J. Kohn, J. Koopman, C. Lavigne,
   S. Lehtola, F. März, M. Müller, F. Musil, H. Neugebauer, J. Pisarek,
   C. Plett, P. Pracht, F. Pultar, J. Seibert, P. Shushkov, S. Spicher,
   M. Stahn, M. Steiner, T. Strunk, J. Stückrath, T. Rose, and J. Unsleber
   
 * started run on 2026/08/28 at 19:10:33.278     
   ID    Z sym.   atoms
    1    6 C      1-4, 7-9, 11, 14-20, 22, 23, 28, 29, 31-33
    2    7 N      5, 6, 10, 13, 27, 30
    3    8 O      12, 21, 25, 26
    4   16 S      24
    5    1 H      34-63

           -------------------------------------------------
          |                Calculation Setup                |
           -------------------------------------------------

          program call               : xtb in.xyz --gfn 2 --opt --norestart
          hostname                   : 756d39058c4f
          coordinate file            : in.xyz
          random seed                :            1064678707


           -------------------------------------------------
          |                 G F N 2 - x T B                 |
           -------------------------------------------------

        Reference                      10.1021/acs.jctc.8b01176
      * Hamiltonian:
        H0-scaling (s, p, d)           1.850000    2.230000    2.230000
        zeta-weighting                 0.500000
      * Dispersion:
        s8                             2.700000
        a1                             0.520000
        a2                             5.000000
        s9                             5.000000
      * Repulsion:
        kExp                           1.500000    1.000000
        rExp                           1.000000
      * Coulomb:
        alpha                          2.000000
        third order                    shell-resolved
        anisotropic                    true
        a3                             3.000000
        a5                             4.000000
        cn-shift                       1.200000
        cn-exp                         4.000000
        max-rad                        5.000000


          ...................................................
          :                      SETUP                      :
          :.................................................:
          :  # basis functions                 168          :
          :  # atomic orbitals                 167          :
          :  # shells                           97          :
          :  # electrons                       178          :
          :  max. iterations                   250          :
          :  Hamiltonian                  GFN2-xTB          :
          :  restarted?                      false          :
          :  GBSA solvation                  false          :
          :  PC potential                    false          :
          :  electronic temp.          300.0000000     K    :
          :  accuracy                    1.0000000          :
          :  -> integral cutoff          0.2500000E+02      :
          :  -> integral neglect         0.1000000E-07      :
          :  -> SCF convergence          0.1000000E-05 Eh   :
          :  -> wf. convergence          0.1000000E-03 e    :
          :  Broyden damping             0.4000000          :
          :  net charge                          0          :
          :  unpaired electrons                  0          :
          ...................................................

 iter      E             dE          RMSdq      gap      omega  full diag
   1   -100.4419583 -0.100442E+03  0.430E+00    2.39       0.0  T
   2   -100.6158611 -0.173903E+00  0.271E+00    2.08       1.0  T
   3   -100.6016188  0.142423E-01  0.157E+00    2.09       1.0  T
   4   -100.6371909 -0.355721E-01  0.801E-01    1.80       1.0  T
   5   -100.6726390 -0.354481E-01  0.212E-01    1.78       1.0  T
   6   -100.6734672 -0.828179E-03  0.120E-01    1.74       1.0  T
   7   -100.6737706 -0.303401E-03  0.634E-02    1.79       1.0  T
   8   -100.6738131 -0.425099E-04  0.318E-02    1.80       1.0  T
   9   -100.6738313 -0.181287E-04  0.147E-02    1.81       1.0  T
  10   -100.6738351 -0.385695E-05  0.585E-03    1.80       2.2  T
  11   -100.6738355 -0.438406E-06  0.296E-03    1.80       4.3  T
  12   -100.6738356 -0.432328E-07  0.143E-03    1.80       8.8  T
  13   -100.6738357 -0.652766E-07  0.363E-04    1.80      34.7  T
  14   -100.6738357 -0.544588E-09  0.165E-04    1.80      76.3  T

   *** convergence criteria satisfied after 14 iterations ***

         #    Occupation            Energy/Eh            Energy/eV
      -------------------------------------------------------------
         1        2.0000           -0.7831186             -21.3097
       ...           ...                  ...                  ...
        83        2.0000           -0.4260206             -11.5926
        84        2.0000           -0.4208129             -11.4509
        85        2.0000           -0.4082602             -11.1093
        86        2.0000           -0.4002372             -10.8910
        87        2.0000           -0.3837914             -10.4435
        88        2.0000           -0.3776696             -10.2769
        89        2.0000           -0.3730080             -10.1501 (HOMO)
        90                         -0.3068402              -8.3495 (LUMO)
        91                         -0.2828326              -7.6963
        92                         -0.2776627              -7.5556
        93                         -0.2162811              -5.8853
        94                         -0.2116720              -5.7599
       ...                                ...                  ...
       167                          1.1377181              30.9589
      -------------------------------------------------------------
                  HL-Gap            0.0661678 Eh            1.8005 eV
             Fermi-level           -0.3399241 Eh           -9.2498 eV

 SCC (total)                   0 d,  0 h,  0 min,  0.404 sec
 SCC setup                      ...        0 min,  0.000 sec (  0.053%)
 Dispersion                     ...        0 min,  0.001 sec (  0.140%)
 classical contributions        ...        0 min,  0.000 sec (  0.024%)
 integral evaluation            ...        0 min,  0.020 sec (  4.896%)
 iterations                     ...        0 min,  0.320 sec ( 79.097%)
 molecular gradient             ...        0 min,  0.061 sec ( 15.201%)
 printout                       ...        0 min,  0.002 sec (  0.584%)

         :::::::::::::::::::::::::::::::::::::::::::::::::::::
         ::                     SUMMARY                     ::
         :::::::::::::::::::::::::::::::::::::::::::::::::::::
         :: total energy             -99.484057228724 Eh    ::
         :: gradient norm              0.136483864312 Eh/a0 ::
         :: HOMO-LUMO gap              1.800517645756 eV    ::
         ::.................................................::
         :: SCC energy              -100.672363600005 Eh    ::
         :: -> isotropic ES            0.143803828640 Eh    ::
         :: -> anisotropic ES          0.004703199800 Eh    ::
         :: -> anisotropic XC          0.046788325416 Eh    ::
         :: -> dispersion             -0.073273437788 Eh    ::
         :: repulsion energy           1.188306371281 Eh    ::
         :: add. restraining           0.000000000000 Eh    ::
         :: total charge              -0.000000000000 e     ::
         :::::::::::::::::::::::::::::::::::::::::::::::::::::

      ----------------------------------------------------------- 
     |                   =====================                   |
     |                        A N C O P T                        |
     |                   =====================                   |
     |               Approximate Normal Coordinate               |
     |                Rational Function Optimizer                |
      ----------------------------------------------------------- 

          ...................................................
          :                      SETUP                      :
          :.................................................:
          :   optimization level            normal          :
          :   max. optcycles                   200          :
          :   ANC micro-cycles                  20          :
          :   degrees of freedom               183          :
          :.................................................:
          :   RF solver                   davidson          :
          :   write xtbopt.log                true          :
          :   linear?                        false          :
          :   energy convergence         0.5000000E-05 Eh   :
          :   grad. convergence          0.1000000E-02 Eh/α :
          :   maximum RF displ.          1.0000000          :
          :   Hlow (freq-cutoff)         0.1000000E-01      :
          :   Hmax (freq-cutoff)         5.0000000          :
          :   S6 in model hess.         20.0000000          :
          ...................................................

generating ANC from exact Hessian ...
Using Lindh-Hessian (1995)
 Shifting diagonal of input Hessian by    9.9096110529511873E-003
 Lowest  eigenvalues of input Hessian
    0.000000    0.000000    0.000000    0.000000    0.000000    0.000000
    0.010000    0.010108    0.010202    0.010383    0.010807    0.010885
    0.011200    0.011315    0.011884    0.012113    0.012351    0.012563
 Highest eigenvalues
    2.105755    2.118669    2.272822    2.463820    2.515814    3.438022


........................................................................
.............................. CYCLE    1 ..............................
........................................................................

 iter      E             dE          RMSdq      gap      omega  full diag
   1   -100.6738357 -0.100674E+03  0.712E-05    1.80       0.0  T
   2   -100.6738357 -0.396057E-10  0.464E-05    1.80     271.3  T
   3   -100.6738357 -0.202647E-10  0.296E-05    1.80     426.3  T
     SCC iter.                  ...        0 min,  0.042 sec
     gradient                   ...        0 min,  0.053 sec
 * total energy  :   -99.4840572 Eh     change       -0.7599681E-09 Eh
   gradient norm :     0.1364833 Eh/α   predicted     0.0000000E+00 (-100.00%)
   displ. norm   :     0.3236210 α      lambda       -0.2411232E-01
   maximum displ.:     0.1215293 α      in ANC's #59, #61, #43, ...

........................................................................
.............................. CYCLE    2 ..............................
........................................................................

 iter      E             dE          RMSdq      gap      omega  full diag
   1   -100.7272375 -0.100727E+03  0.237E-01    1.76       0.0  T
   2   -100.7275886 -0.351077E-03  0.139E-01    1.85       1.0  T
   3   -100.7275999 -0.112763E-04  0.107E-01    1.85       1.0  T
   4   -100.7279245 -0.324574E-03  0.299E-02    1.85       1.0  T
   5   -100.7279851 -0.606404E-04  0.108E-02    1.86       1.2  T
   6   -100.7279900 -0.483632E-05  0.395E-03    1.86       3.2  T
   7   -100.7279902 -0.234466E-06  0.109E-03    1.86      11.6  T
   8   -100.7279902 -0.246163E-07  0.501E-04    1.86      25.2  T
   9   -100.7279902 -0.347183E-08  0.247E-04    1.86      51.1  T
     SCC iter.                  ...        0 min,  0.157 sec
     gradient                   ...        0 min,  0.040 sec
 * total energy  :   -99.5013483 Eh     change       -0.1729105E-01 Eh
   gradient norm :     0.0681563 Eh/α   predicted    -0.1332608E-01 ( -22.93%)
   displ. norm   :     0.3186197 α      lambda       -0.9930792E-02
   maximum displ.:     0.0970954 α      in ANC's #43, #59, #34, ...

........................................................................
.............................. CYCLE    3 ..............................
........................................................................

 iter      E             dE          RMSdq      gap      omega  full diag
   1   -100.7582087 -0.100758E+03  0.221E-01    1.78       0.0  T
   2   -100.7583645 -0.155894E-03  0.140E-01    1.84       1.0  T
   3   -100.7589477 -0.583169E-03  0.992E-02    1.85       1.0  T
   4   -100.7592154 -0.267656E-03  0.251E-02    1.84       1.0  T
   5   -100.7592451 -0.297676E-04  0.117E-02    1.85       1.1  T
   6   -100.7592509 -0.572549E-05  0.398E-03    1.85       3.2  T
   7   -100.7592510 -0.153616E-06  0.926E-04    1.85      13.6  T
   8   -100.7592510 -0.148312E-07  0.471E-04    1.85      26.8  T
     SCC iter.                  ...        0 min,  0.116 sec
     gradient                   ...        0 min,  0.039 sec
 * total energy  :   -99.5072417 Eh     change       -0.5893386E-02 Eh
   gradient norm :     0.0271294 Eh/α   predicted    -0.5471926E-02 (  -7.15%)
   displ. norm   :     0.2320970 α      lambda       -0.1678810E-02
   maximum displ.:     0.0863659 α      in ANC's #21, #26, #25, ...

........................................................................
.............................. CYCLE    4 ..............................
........................................................................

 iter      E             dE          RMSdq      gap      omega  full diag
   1   -100.7605775 -0.100761E+03  0.864E-02    1.82       0.0  T
   2   -100.7605695  0.802400E-05  0.569E-02    1.83       1.0  T
   3   -100.7606691 -0.996728E-04  0.393E-02    1.84       1.0  T
   4   -100.7607160 -0.468492E-04  0.860E-03    1.83       1.5  T
   5   -100.7607202 -0.421219E-05  0.369E-03    1.84       3.4  T
   6   -100.7607206 -0.458464E-06  0.127E-03    1.84       9.9  T
   7   -100.7607207 -0.149844E-07  0.295E-04    1.84      42.6  T
   8   -100.7607207 -0.551537E-09  0.157E-04    1.84      80.0  T
     SCC iter.                  ...        0 min,  0.132 sec
     gradient                   ...        0 min,  0.047 sec
 * total energy  :   -99.5085137 Eh     change       -0.1272085E-02 Eh
   gradient norm :     0.0177612 Eh/α   predicted    -0.8846393E-03 ( -30.46%)
   displ. norm   :     0.3575091 α      lambda       -0.1528377E-02
   maximum displ.:     0.1232591 α      in ANC's #21, #14, #26, ...

........................................................................
.............................. CYCLE    5 ..............................
........................................................................

 iter      E             dE          RMSdq      gap      omega  full diag
   1   -100.7578962 -0.100758E+03  0.947E-02    1.80       0.0  T
   2   -100.7578940  0.220002E-05  0.587E-02    1.80       1.0  T
   3   -100.7579148 -0.207582E-04  0.466E-02    1.81       1.0  T
   4   -100.7579995 -0.847216E-04  0.836E-03    1.80       1.5  T
   5   -100.7580038 -0.432500E-05  0.314E-03    1.81       4.0  T
   6   -100.7580041 -0.341676E-06  0.120E-03    1.81      10.5  T
   7   -100.7580042 -0.119521E-07  0.308E-04    1.81      40.8  T
   8   -100.7580042 -0.861405E-09  0.151E-04    1.81      83.5  T
     SCC iter.                  ...        0 min,  0.147 sec
     gradient                   ...        0 min,  0.080 sec
 * total energy  :   -99.5095690 Eh     change       -0.1055220E-02 Eh
   gradient norm :     0.0099822 Eh/α   predicted    -0.8618671E-03 ( -18.32%)
   displ. norm   :     0.3238955 α      lambda       -0.7293680E-03
   maximum displ.:     0.1235729 α      in ANC's #10, #14, #7, ...

........................................................................
.............................. CYCLE    6 ..............................
........................................................................

 iter      E             dE          RMSdq      gap      omega  full diag
   1   -100.7566629 -0.100757E+03  0.662E-02    1.78       0.0  T
   2   -100.7566736 -0.107468E-04  0.389E-02    1.78       1.0  T
   3   -100.7566469  0.267015E-04  0.288E-02    1.78       1.0  T
   4   -100.7566849 -0.379500E-04  0.682E-03    1.78       1.8  T
   5   -100.7566882 -0.334544E-05  0.214E-03    1.78       5.9  T
   6   -100.7566884 -0.176607E-06  0.936E-04    1.78      13.5  T
   7   -100.7566884 -0.119044E-07  0.262E-04    1.78      48.1  T
     SCC iter.                  ...        0 min,  0.122 sec
     gradient                   ...        0 min,  0.047 sec
 * total energy  :   -99.5101115 Eh     change       -0.5425367E-03 Eh
   gradient norm :     0.0096350 Eh/α   predicted    -0.4029623E-03 ( -25.73%)
   displ. norm   :     0.3785034 α      lambda       -0.6324924E-03
   maximum displ.:     0.1561832 α      in ANC's #10, #14, #4, ...

........................................................................
.............................. CYCLE    7 ..............................
........................................................................

 iter      E             dE          RMSdq      gap      omega  full diag
   1   -100.7569187 -0.100757E+03  0.715E-02    1.76       0.0  T
   2   -100.7569324 -0.136913E-04  0.421E-02    1.77       1.0  T
   3   -100.7569258  0.656486E-05  0.163E-02    1.76       1.0  T
   4   -100.7569343 -0.851610E-05  0.454E-03    1.77       2.8  T
   5   -100.7569354 -0.100863E-05  0.154E-03    1.77       8.2  T
   6   -100.7569353  0.909758E-08  0.106E-03    1.77      11.9  T
   7   -100.7569354 -0.610115E-07  0.341E-04    1.77      36.9  T
   8   -100.7569354 -0.330276E-08  0.148E-04    1.77      85.0  T
     SCC iter.                  ...        0 min,  0.155 sec
     gradient                   ...        0 min,  0.065 sec
 * total energy  :   -99.5105948 Eh     change       -0.4832951E-03 Eh
   gradient norm :     0.0105875 Eh/α   predicted    -0.3615672E-03 ( -25.19%)
   displ. norm   :     0.4273031 α      lambda       -0.6078322E-03
   maximum displ.:     0.1820153 α      in ANC's #10, #14, #4, ...

........................................................................
.............................. CYCLE    8 ..............................
........................................................................

 iter      E             dE          RMSdq      gap      omega  full diag
   1   -100.7583026 -0.100758E+03  0.813E-02    1.75       0.0  T
   2   -100.7583135 -0.108745E-04  0.480E-02    1.76       1.0  T
   3   -100.7582883  0.252168E-04  0.215E-02    1.75       1.0  T
   4   -100.7583149 -0.266298E-04  0.669E-03    1.75       1.9  T
   5   -100.7583178 -0.289256E-05  0.214E-03    1.75       5.9  T
   6   -100.7583179 -0.140609E-06  0.995E-04    1.75      12.7  T
   7   -100.7583180 -0.246081E-07  0.382E-04    1.75      32.9  T
     SCC iter.                  ...        0 min,  0.118 sec
     gradient                   ...        0 min,  0.053 sec
 * total energy  :   -99.5110731 Eh     change       -0.4783131E-03 Eh
   gradient norm :     0.0115199 Eh/α   predicted    -0.3594084E-03 ( -24.86%)
   displ. norm   :     0.4738217 α      lambda       -0.6407369E-03
   maximum displ.:     0.2021528 α      in ANC's #10, #4, #14, ...

........................................................................
.............................. CYCLE    9 ..............................
........................................................................

 iter      E             dE          RMSdq      gap      omega  full diag
   1   -100.7600279 -0.100760E+03  0.925E-02    1.74       0.0  T
   2   -100.7600362 -0.827913E-05  0.542E-02    1.75       1.0  T
   3   -100.7599923  0.439054E-04  0.267E-02    1.74       1.0  T
   4   -100.7600404 -0.481622E-04  0.550E-03    1.74       2.3  T
   5   -100.7600419 -0.150500E-05  0.238E-03    1.74       5.3  T
   6   -100.7600421 -0.208512E-06  0.913E-04    1.74      13.8  T
   7   -100.7600422 -0.102803E-07  0.414E-04    1.74      30.4  T
     SCC iter.                  ...        0 min,  0.175 sec
     gradient                   ...        0 min,  0.040 sec
 * total energy  :   -99.5115858 Eh     change       -0.5127231E-03 Eh
   gradient norm :     0.0121062 Eh/α   predicted    -0.3923010E-03 ( -23.49%)
   displ. norm   :     0.4933934 α      lambda       -0.6716162E-03
   maximum displ.:     0.2080551 α      in ANC's #4, #10, #14, ...

........................................................................
.............................. CYCLE   10 ..............................
........................................................................

 iter      E             dE          RMSdq      gap      omega  full diag
   1   -100.7614173 -0.100761E+03  0.992E-02    1.74       0.0  T
   2   -100.7614291 -0.118814E-04  0.580E-02    1.74       1.0  T
   3   -100.7613983  0.308580E-04  0.249E-02    1.73       1.0  T
   4   -100.7614319 -0.336159E-04  0.640E-03    1.73       2.0  T
   5   -100.7614341 -0.216009E-05  0.287E-03    1.73       4.4  T
   6   -100.7614344 -0.364774E-06  0.109E-03    1.73      11.5  T
   7   -100.7614344 -0.248392E-07  0.460E-04    1.73      27.4  T
   8   -100.7614345 -0.292464E-08  0.216E-04    1.73      58.2  T
     SCC iter.                  ...        0 min,  0.157 sec
     gradient                   ...        0 min,  0.044 sec
 * total energy  :   -99.5121169 Eh     change       -0.5311108E-03 Eh
   gradient norm :     0.0111396 Eh/α   predicted    -0.4175580E-03 ( -21.38%)
   displ. norm   :     0.4767398 α      lambda       -0.5936915E-03
   maximum displ.:     0.2105123 α      in ANC's #4, #10, #14, ...

........................................................................
.............................. CYCLE   11 ..............................
........................................................................

 iter      E             dE          RMSdq      gap      omega  full diag
   1   -100.7612565 -0.100761E+03  0.978E-02    1.72       0.0  T
   2   -100.7612744 -0.179530E-04  0.575E-02    1.72       1.0  T
   3   -100.7612600  0.144304E-04  0.218E-02    1.72       1.0  T
   4   -100.7612775 -0.175534E-04  0.544E-03    1.72       2.3  T
   5   -100.7612786 -0.107401E-05  0.275E-03    1.72       4.6  T
   6   -100.7612789 -0.264257E-06  0.138E-03    1.72       9.1  T
   7   -100.7612790 -0.888391E-07  0.478E-04    1.72      26.3  T
   8   -100.7612790 -0.408617E-08  0.240E-04    1.72      52.4  T
     SCC iter.                  ...        0 min,  0.153 sec
     gradient                   ...        0 min,  0.053 sec
 * total energy  :   -99.5125600 Eh     change       -0.4430330E-03 Eh
   gradient norm :     0.0083864 Eh/α   predicted    -0.3643358E-03 ( -17.76%)
   displ. norm   :     0.3616997 α      lambda       -0.3664809E-03
   maximum displ.:     0.1744433 α      in ANC's #4, #10, #14, ...

........................................................................
.............................. CYCLE   12 ..............................
........................................................................

 iter      E             dE          RMSdq      gap      omega  full diag
   1   -100.7620264 -0.100762E+03  0.753E-02    1.71       0.0  T
   2   -100.7620388 -0.123706E-04  0.445E-02    1.71       1.0  T
   3   -100.7620290  0.971358E-05  0.181E-02    1.71       1.0  T
   4   -100.7620415 -0.124752E-04  0.399E-03    1.71       3.2  T
   5   -100.7620421 -0.539059E-06  0.191E-03    1.71       6.6  T
   6   -100.7620421 -0.778854E-07  0.101E-03    1.71      12.5  T
   7   -100.7620422 -0.467301E-07  0.408E-04    1.71      30.8  T
   8   -100.7620422 -0.457254E-08  0.198E-04    1.71      63.7  T
     SCC iter.                  ...        0 min,  0.127 sec
     gradient                   ...        0 min,  0.045 sec
 * total energy  :   -99.5128135 Eh     change       -0.2535141E-03 Eh
   gradient norm :     0.0064010 Eh/α   predicted    -0.2072187E-03 ( -18.26%)
   displ. norm   :     0.3491325 α      lambda       -0.2130522E-03
   maximum displ.:     0.1715134 α      in ANC's #4, #10, #14, ...

........................................................................
.............................. CYCLE   13 ..............................
........................................................................

 iter      E             dE          RMSdq      gap      omega  full diag
   1   -100.7579980 -0.100758E+03  0.695E-02    1.70       0.0  T
   2   -100.7580049 -0.689692E-05  0.413E-02    1.69       1.0  T
   3   -100.7579936  0.112552E-04  0.167E-02    1.69       1.0  T
   4   -100.7580074 -0.137967E-04  0.269E-03    1.69       4.7  T
   5   -100.7580076 -0.176801E-06  0.139E-03    1.69       9.1  T
   6   -100.7580076 -0.387865E-07  0.723E-04    1.69      17.4  T
   7   -100.7580077 -0.173378E-07  0.338E-04    1.69      37.3  T
     SCC iter.                  ...        0 min,  0.123 sec
     gradient                   ...        0 min,  0.053 sec
 * total energy  :   -99.5129113 Eh     change       -0.9779332E-04 Eh
   gradient norm :     0.0090121 Eh/α   predicted    -0.1195184E-03 (  22.22%)
   displ. norm   :     0.2265629 α      lambda       -0.3397720E-03
   maximum displ.:     0.1283039 α      in ANC's #4, #11, #16, ...

........................................................................
.............................. CYCLE   14 ..............................
........................................................................

 iter      E             dE          RMSdq      gap      omega  full diag
   1   -100.7648166 -0.100765E+03  0.523E-02    1.69       0.0  T
   2   -100.7648240 -0.737820E-05  0.307E-02    1.69       1.0  T
   3   -100.7648189  0.509416E-05  0.131E-02    1.69       1.0  T
   4   -100.7648253 -0.647210E-05  0.370E-03    1.69       3.4  T
   5   -100.7648259 -0.570965E-06  0.170E-03    1.69       7.4  T
   6   -100.7648260 -0.102690E-06  0.884E-04    1.69      14.3  T
   7   -100.7648260 -0.268383E-07  0.368E-04    1.69      34.2  T
     SCC iter.                  ...        0 min,  0.130 sec
     gradient                   ...        0 min,  0.070 sec
 * total energy  :   -99.5130323 Eh     change       -0.1209720E-03 Eh
   gradient norm :     0.0093284 Eh/α   predicted    -0.1786152E-03 (  47.65%)
   displ. norm   :     0.1169423 α      lambda       -0.1525631E-03
   maximum displ.:     0.0619550 α      in ANC's #4, #9, #11, ...

........................................................................
.............................. CYCLE   15 ..............................
........................................................................

 iter      E             dE          RMSdq      gap      omega  full diag
   1   -100.7630920 -0.100763E+03  0.256E-02    1.69       0.0  T
   2   -100.7630941 -0.208856E-05  0.152E-02    1.69       1.0  T
   3   -100.7630914  0.264161E-05  0.806E-03    1.69       1.6  T
   4   -100.7630941 -0.265756E-05  0.326E-03    1.69       3.9  T
   5   -100.7630948 -0.716520E-06  0.757E-04    1.69      16.6  T
   6   -100.7630948 -0.145681E-07  0.368E-04    1.69      34.3  T
     SCC iter.                  ...        0 min,  0.110 sec
     gradient                   ...        0 min,  0.054 sec
 * total energy  :   -99.5131472 Eh     change       -0.1149601E-03 Eh
   gradient norm :     0.0072484 Eh/α   predicted    -0.7732824E-04 ( -32.73%)
   displ. norm   :     0.2391881 α      lambda       -0.3465445E-03
   maximum displ.:     0.1192035 α      in ANC's #4, #9, #19, ...

........................................................................
.............................. CYCLE   16 ..............................
........................................................................

 iter      E             dE          RMSdq      gap      omega  full diag
   1   -100.7614030 -0.100761E+03  0.535E-02    1.70       0.0  T
   2   -100.7614149 -0.118894E-04  0.311E-02    1.70       1.0  T
   3   -100.7614098  0.504477E-05  0.141E-02    1.70       1.0  T
   4   -100.7614137 -0.382244E-05  0.721E-03    1.70       1.7  T
   5   -100.7614173 -0.364739E-05  0.173E-03    1.70       7.3  T
   6   -100.7614174 -0.569421E-07  0.788E-04    1.70      16.0  T
   7   -100.7614174 -0.151651E-07  0.278E-04    1.70      45.3  T
     SCC iter.                  ...        0 min,  0.112 sec
     gradient                   ...        0 min,  0.043 sec
 * total energy  :   -99.5133046 Eh     change       -0.1573533E-03 Eh
   gradient norm :     0.0074227 Eh/α   predicted    -0.1831936E-03 (  16.42%)
   displ. norm   :     0.2588579 α      lambda       -0.2136726E-03
   maximum displ.:     0.1417850 α      in ANC's #4, #9, #11, ...

........................................................................
.............................. CYCLE   17 ..............................
........................................................................

 iter      E             dE          RMSdq      gap      omega  full diag
   1   -100.7609394 -0.100761E+03  0.511E-02    1.71       0.0  T
   2   -100.7609428 -0.340427E-05  0.304E-02    1.71       1.0  T
   3   -100.7609372  0.562208E-05  0.113E-02    1.71       1.1  T
   4   -100.7609437 -0.643690E-05  0.275E-03    1.71       4.6  T
   5   -100.7609440 -0.304629E-06  0.142E-03    1.71       8.9  T
   6   -100.7609440 -0.877770E-07  0.597E-04    1.71      21.1  T
   7   -100.7609441 -0.893608E-08  0.229E-04    1.71      55.1  T
     SCC iter.                  ...        0 min,  0.114 sec
     gradient                   ...        0 min,  0.061 sec
 * total energy  :   -99.5134353 Eh     change       -0.1306861E-03 Eh
   gradient norm :     0.0090788 Eh/α   predicted    -0.1139955E-03 ( -12.77%)
   displ. norm   :     0.2009821 α      lambda       -0.2140754E-03
   maximum displ.:     0.0904483 α      in ANC's #4, #9, #5, ...

........................................................................
.............................. CYCLE   18 ..............................
........................................................................

 iter      E             dE          RMSdq      gap      omega  full diag
   1   -100.7639147 -0.100764E+03  0.393E-02    1.71       0.0  T
   2   -100.7639171 -0.241974E-05  0.232E-02    1.72       1.0  T
   3   -100.7639151  0.204301E-05  0.760E-03    1.71       1.7  T
   4   -100.7639176 -0.247328E-05  0.188E-03    1.71       6.7  T
   5   -100.7639177 -0.114019E-06  0.974E-04    1.71      12.9  T
   6   -100.7639177 -0.428498E-07  0.507E-04    1.71      24.8  T
     SCC iter.                  ...        0 min,  0.104 sec
     gradient                   ...        0 min,  0.064 sec
 * total energy  :   -99.5135909 Eh     change       -0.1555981E-03 Eh
   gradient norm :     0.0069477 Eh/α   predicted    -0.1113619E-03 ( -28.43%)
   displ. norm   :     0.4502177 α      lambda       -0.2806932E-03
   maximum displ.:     0.2617969 α      in ANC's #4, #9, #11, ...

........................................................................
.............................. CYCLE   19 ..............................
........................................................................

 iter      E             dE          RMSdq      gap      omega  full diag
   1   -100.7615964 -0.100762E+03  0.776E-02    1.72       0.0  T
   2   -100.7616049 -0.843412E-05  0.463E-02    1.72       1.0  T
   3   -100.7615932  0.116654E-04  0.179E-02    1.72       1.0  T
   4   -100.7616077 -0.145168E-04  0.300E-03    1.72       4.2  T
   5   -100.7616079 -0.164316E-06  0.166E-03    1.72       7.6  T
   6   -100.7616080 -0.963539E-07  0.842E-04    1.72      15.0  T
   7   -100.7616080 -0.263039E-07  0.394E-04    1.72      32.0  T
     SCC iter.                  ...        0 min,  0.172 sec
     gradient                   ...        0 min,  0.051 sec
 * total energy  :   -99.5137837 Eh     change       -0.1928173E-03 Eh
   gradient norm :     0.0064126 Eh/α   predicted    -0.1687980E-03 ( -12.46%)
   displ. norm   :     0.3298784 α      lambda       -0.2312147E-03
   maximum displ.:     0.1867701 α      in ANC's #4, #9, #6, ...

........................................................................
.............................. CYCLE   20 ..............................
........................................................................

 iter      E             dE          RMSdq      gap      omega  full diag
   1   -100.7622920 -0.100762E+03  0.601E-02    1.72       0.0  T
   2   -100.7622968 -0.481102E-05  0.354E-02    1.72       1.0  T
   3   -100.7622919  0.482879E-05  0.114E-02    1.72       1.1  T
   4   -100.7622978 -0.586930E-05  0.251E-03    1.72       5.0  T
   5   -100.7622980 -0.228411E-06  0.114E-03    1.72      11.1  T
   6   -100.7622981 -0.250002E-07  0.683E-04    1.72      18.4  T
   7   -100.7622981 -0.207833E-07  0.265E-04    1.72      47.5  T
     SCC iter.                  ...        0 min,  0.117 sec
     gradient                   ...        0 min,  0.046 sec
 * total energy  :   -99.5139179 Eh     change       -0.1342228E-03 Eh
   gradient norm :     0.0046390 Eh/α   predicted    -0.1281894E-03 (  -4.50%)
   displ. norm   :     0.4297410 α      lambda       -0.1641485E-03
   maximum displ.:     0.2616549 α      in ANC's #4, #9, #6, ...
 * RMSD in coord.:     0.6347510 α      energy gain  -0.2986067E-01 Eh

generating ANC from exact Hessian ...
Using Lindh-Hessian (1995)
 Shifting diagonal of input Hessian by    9.9111596049475965E-003
 Lowest  eigenvalues of input Hessian
    0.000000    0.000000    0.000000    0.000000    0.000000    0.000000
    0.010000    0.010115    0.010214    0.010463    0.010954    0.011055
    0.011433    0.011497    0.011986    0.012328    0.012475    0.012935
 Highest eigenvalues
    2.112205    2.138192    2.215737    2.506390    2.702115    3.594797


........................................................................
.............................. CYCLE   21 ..............................
........................................................................

 iter      E             dE          RMSdq      gap      omega  full diag
   1   -100.7591825 -0.100759E+03  0.728E-02    1.72       0.0  T
   2   -100.7591878 -0.529487E-05  0.432E-02    1.72       1.0  T
   3   -100.7591721  0.157127E-04  0.166E-02    1.72       1.0  T
   4   -100.7591892 -0.171233E-04  0.412E-03    1.72       3.1  T
   5   -100.7591901 -0.904267E-06  0.189E-03    1.72       6.7  T
   6   -100.7591903 -0.157173E-06  0.718E-04    1.72      17.5  T
   7   -100.7591903 -0.560092E-08  0.288E-04    1.72      43.7  T
     SCC iter.                  ...        0 min,  0.119 sec
     gradient                   ...        0 min,  0.054 sec
 * total energy  :   -99.5140087 Eh     change       -0.9081644E-04 Eh
   gradient norm :     0.0067965 Eh/α   predicted     0.0000000E+00 (-100.00%)
   displ. norm   :     0.0549425 α      lambda       -0.1250676E-03
   maximum displ.:     0.0328189 α      in ANC's #8, #22, #4, ...

........................................................................
.............................. CYCLE   22 ..............................
........................................................................

 iter      E             dE          RMSdq      gap      omega  full diag
   1   -100.7630207 -0.100763E+03  0.143E-02    1.72       0.0  T
   2   -100.7630214 -0.678047E-06  0.820E-03    1.72       1.5  T
   3   -100.7630209  0.476674E-06  0.383E-03    1.72       3.3  T
   4   -100.7630214 -0.484028E-06  0.143E-03    1.72       8.8  T
   5   -100.7630215 -0.132323E-06  0.469E-04    1.72      26.9  T
   6   -100.7630215 -0.827248E-08  0.225E-04    1.72      56.0  T
     SCC iter.                  ...        0 min,  0.105 sec
     gradient                   ...        0 min,  0.069 sec
 * total energy  :   -99.5141001 Eh     change       -0.9141749E-04 Eh
   gradient norm :     0.0029417 Eh/α   predicted    -0.6278625E-04 ( -31.32%)
   displ. norm   :     0.1132880 α      lambda       -0.1041672E-03
   maximum displ.:     0.0701256 α      in ANC's #8, #4, #9, ...

........................................................................
.............................. CYCLE   23 ..............................
........................................................................

 iter      E             dE          RMSdq      gap      omega  full diag
   1   -100.7660255 -0.100766E+03  0.199E-02    1.71       0.0  T
   2   -100.7660263 -0.784460E-06  0.116E-02    1.71       1.1  T
   3   -100.7660248  0.145538E-05  0.571E-03    1.71       2.2  T
   4   -100.7660264 -0.153509E-05  0.178E-03    1.71       7.1  T
   5   -100.7660266 -0.207826E-06  0.576E-04    1.71      21.9  T
   6   -100.7660266 -0.108900E-07  0.250E-04    1.71      50.3  T
     SCC iter.                  ...        0 min,  0.115 sec
     gradient                   ...        0 min,  0.066 sec
 * total energy  :   -99.5141769 Eh     change       -0.7673850E-04 Eh
   gradient norm :     0.0023933 Eh/α   predicted    -0.5275653E-04 ( -31.25%)
   displ. norm   :     0.1804937 α      lambda       -0.1050142E-03
   maximum displ.:     0.1057648 α      in ANC's #8, #9, #4, ...

........................................................................
.............................. CYCLE   24 ..............................
........................................................................

 iter      E             dE          RMSdq      gap      omega  full diag
   1   -100.7670713 -0.100767E+03  0.278E-02    1.70       0.0  T
   2   -100.7670720 -0.701025E-06  0.163E-02    1.70       1.0  T
   3   -100.7670691  0.290929E-05  0.715E-03    1.71       1.8  T
   4   -100.7670722 -0.309514E-05  0.188E-03    1.71       6.7  T
   5   -100.7670724 -0.207477E-06  0.665E-04    1.71      18.9  T
   6   -100.7670724 -0.121152E-07  0.278E-04    1.71      45.4  T
     SCC iter.                  ...        0 min,  0.109 sec
     gradient                   ...        0 min,  0.050 sec
 * total energy  :   -99.5142626 Eh     change       -0.8569721E-04 Eh
   gradient norm :     0.0038384 Eh/α   predicted    -0.5422965E-04 ( -36.72%)
   displ. norm   :     0.3049850 α      lambda       -0.1456415E-03
   maximum displ.:     0.1678424 α      in ANC's #8, #9, #4, ...

........................................................................
.............................. CYCLE   25 ..............................
........................................................................

 iter      E             dE          RMSdq      gap      omega  full diag
   1   -100.7654430 -0.100765E+03  0.455E-02    1.70       0.0  T
   2   -100.7654445 -0.149527E-05  0.268E-02    1.70       1.0  T
   3   -100.7654388  0.568955E-05  0.961E-03    1.70       1.3  T
   4   -100.7654449 -0.611316E-05  0.262E-03    1.70       4.8  T
   5   -100.7654453 -0.315617E-06  0.109E-03    1.70      11.6  T
   6   -100.7654453 -0.393055E-07  0.467E-04    1.70      27.0  T
   7   -100.7654453 -0.114961E-07  0.140E-04    1.70      89.8  T
     SCC iter.                  ...        0 min,  0.111 sec
     gradient                   ...        0 min,  0.054 sec
 * total energy  :   -99.5143626 Eh     change       -0.1000787E-03 Eh
   gradient norm :     0.0047480 Eh/α   predicted    -0.7959520E-04 ( -20.47%)
   displ. norm   :     0.1823697 α      lambda       -0.6250209E-04
   maximum displ.:     0.0965269 α      in ANC's #8, #9, #4, ...

........................................................................
.............................. CYCLE   26 ..............................
........................................................................

 iter      E             dE          RMSdq      gap      omega  full diag
   1   -100.7636800 -0.100764E+03  0.262E-02    1.69       0.0  T
   2   -100.7636806 -0.613297E-06  0.155E-02    1.70       1.0  T
   3   -100.7636793  0.134404E-05  0.500E-03    1.70       2.5  T
   4   -100.7636808 -0.156596E-05  0.113E-03    1.70      11.1  T
   5   -100.7636809 -0.159935E-07  0.704E-04    1.70      17.9  T
   6   -100.7636809 -0.228134E-07  0.256E-04    1.70      49.1  T
     SCC iter.                  ...        0 min,  0.107 sec
     gradient                   ...        0 min,  0.047 sec
 * total energy  :   -99.5144059 Eh     change       -0.4327532E-04 Eh
   gradient norm :     0.0043732 Eh/α   predicted    -0.3232849E-04 ( -25.30%)
   displ. norm   :     0.1239002 α      lambda       -0.6224038E-04
   maximum displ.:     0.0577569 α      in ANC's #4, #8, #9, ...

........................................................................
.............................. CYCLE   27 ..............................
........................................................................

 iter      E             dE          RMSdq      gap      omega  full diag
   1   -100.7629581 -0.100763E+03  0.196E-02    1.70       0.0  T
   2   -100.7629591 -0.942823E-06  0.114E-02    1.70       1.1  T
   3   -100.7629581  0.992572E-06  0.555E-03    1.70       2.3  T
   4   -100.7629593 -0.126104E-05  0.126E-03    1.70      10.0  T
   5   -100.7629594 -0.488264E-07  0.719E-04    1.70      17.5  T
   6   -100.7629594 -0.339501E-07  0.259E-04    1.70      48.7  T
     SCC iter.                  ...        0 min,  0.095 sec
     gradient                   ...        0 min,  0.068 sec
 * total energy  :   -99.5144492 Eh     change       -0.4324085E-04 Eh
   gradient norm :     0.0028065 Eh/α   predicted    -0.3159807E-04 ( -26.93%)
   displ. norm   :     0.1522025 α      lambda       -0.4803141E-04
   maximum displ.:     0.0727732 α      in ANC's #4, #9, #8, ...

........................................................................
.............................. CYCLE   28 ..............................
........................................................................

 iter      E             dE          RMSdq      gap      omega  full diag
   1   -100.7628040 -0.100763E+03  0.236E-02    1.70       0.0  T
   2   -100.7628049 -0.898492E-06  0.140E-02    1.70       1.0  T
   3   -100.7628035  0.141017E-05  0.604E-03    1.70       2.1  T
   4   -100.7628052 -0.169632E-05  0.115E-03    1.70      10.9  T
   5   -100.7628052 -0.409031E-07  0.707E-04    1.70      17.8  T
   6   -100.7628053 -0.337780E-07  0.252E-04    1.70      50.0  T
     SCC iter.                  ...        0 min,  0.101 sec
     gradient                   ...        0 min,  0.064 sec
 * total energy  :   -99.5144866 Eh     change       -0.3738956E-04 Eh
   gradient norm :     0.0032231 Eh/α   predicted    -0.2459592E-04 ( -34.22%)
   displ. norm   :     0.1980702 α      lambda       -0.6616316E-04
   maximum displ.:     0.0993747 α      in ANC's #4, #9, #8, ...

........................................................................
.............................. CYCLE   29 ..............................
........................................................................

 iter      E             dE          RMSdq      gap      omega  full diag
   1   -100.7635863 -0.100764E+03  0.311E-02    1.71       0.0  T
   2   -100.7635876 -0.129011E-05  0.184E-02    1.71       1.0  T
   3   -100.7635853  0.228286E-05  0.752E-03    1.71       1.7  T
   4   -100.7635880 -0.265830E-05  0.156E-03    1.71       8.1  T
   5   -100.7635881 -0.996303E-07  0.881E-04    1.71      14.3  T
   6   -100.7635881 -0.495729E-07  0.331E-04    1.71      38.1  T
     SCC iter.                  ...        0 min,  0.097 sec
     gradient                   ...        0 min,  0.051 sec
 * total energy  :   -99.5145353 Eh     change       -0.4876286E-04 Eh
   gradient norm :     0.0038609 Eh/α   predicted    -0.3439071E-04 ( -29.47%)
   displ. norm   :     0.2471173 α      lambda       -0.5873783E-04
   maximum displ.:     0.1245530 α      in ANC's #4, #9, #8, ...

........................................................................
.............................. CYCLE   30 ..............................
........................................................................

 iter      E             dE          RMSdq      gap      omega  full diag
   1   -100.7634598 -0.100763E+03  0.372E-02    1.71       0.0  T
   2   -100.7634608 -0.998183E-06  0.221E-02    1.71       1.0  T
   3   -100.7634590  0.171929E-05  0.613E-03    1.71       2.1  T
   4   -100.7634611 -0.201523E-05  0.130E-03    1.71       9.7  T
   5   -100.7634611 -0.458000E-07  0.695E-04    1.71      18.1  T
   6   -100.7634611 -0.170189E-07  0.370E-04    1.71      34.1  T
     SCC iter.                  ...        0 min,  0.105 sec
     gradient                   ...        0 min,  0.040 sec
 * total energy  :   -99.5145768 Eh     change       -0.4148796E-04 Eh
   gradient norm :     0.0039718 Eh/α   predicted    -0.3121106E-04 ( -24.77%)
   displ. norm   :     0.1948735 α      lambda       -0.6359303E-04
   maximum displ.:     0.1031471 α      in ANC's #4, #7, #5, ...

........................................................................
.............................. CYCLE   31 ..............................
........................................................................

 iter      E             dE          RMSdq      gap      omega  full diag
   1   -100.7655113 -0.100766E+03  0.297E-02    1.72       0.0  T
   2   -100.7655121 -0.785947E-06  0.173E-02    1.71       1.0  T
   3   -100.7655115  0.549045E-06  0.412E-03    1.71       3.1  T
   4   -100.7655121 -0.625624E-06  0.168E-03    1.71       7.5  T
   5   -100.7655123 -0.101534E-06  0.765E-04    1.71      16.5  T
   6   -100.7655123 -0.210521E-07  0.359E-04    1.71      35.1  T
     SCC iter.                  ...        0 min,  0.105 sec
     gradient                   ...        0 min,  0.055 sec
 * total energy  :   -99.5146079 Eh     change       -0.3105169E-04 Eh
   gradient norm :     0.0030658 Eh/α   predicted    -0.3300504E-04 (   6.29%)
   displ. norm   :     0.1932182 α      lambda       -0.3725770E-04
   maximum displ.:     0.1016176 α      in ANC's #4, #8, #9, ...

........................................................................
.............................. CYCLE   32 ..............................
........................................................................

 iter      E             dE          RMSdq      gap      omega  full diag
   1   -100.7641892 -0.100764E+03  0.269E-02    1.71       0.0  T
   2   -100.7641896 -0.376706E-06  0.159E-02    1.71       1.0  T
   3   -100.7641890  0.639607E-06  0.357E-03    1.71       3.5  T
   4   -100.7641897 -0.697863E-06  0.124E-03    1.71      10.1  T
   5   -100.7641897 -0.608917E-07  0.568E-04    1.71      22.2  T
   6   -100.7641897 -0.113610E-07  0.249E-04    1.71      50.6  T
     SCC iter.                  ...        0 min,  0.105 sec
     gradient                   ...        0 min,  0.035 sec
 * total energy  :   -99.5146297 Eh     change       -0.2188512E-04 Eh
   gradient norm :     0.0023769 Eh/α   predicted    -0.1932452E-04 ( -11.70%)
   displ. norm   :     0.0571832 α      lambda       -0.2055565E-04
   maximum displ.:     0.0329744 α      in ANC's #4, #8, #11, ...

........................................................................
.............................. CYCLE   33 ..............................
........................................................................

 iter      E             dE          RMSdq      gap      omega  full diag
   1   -100.7645615 -0.100765E+03  0.791E-03    1.71       0.0  T
   2   -100.7645617 -0.135774E-06  0.459E-03    1.71       2.7  T
   3   -100.7645614  0.246732E-06  0.253E-03    1.71       5.0  T
   4   -100.7645617 -0.286716E-06  0.748E-04    1.71      16.8  T
   5   -100.7645618 -0.285393E-07  0.335E-04    1.71      37.6  T
     SCC iter.                  ...        0 min,  0.091 sec
     gradient                   ...        0 min,  0.045 sec
 * total energy  :   -99.5146464 Eh     change       -0.1664734E-04 Eh
   gradient norm :     0.0017612 Eh/α   predicted    -0.1031354E-04 ( -38.05%)
   displ. norm   :     0.2062794 α      lambda       -0.3327901E-04
   maximum displ.:     0.1204800 α      in ANC's #4, #5, #11, ...

........................................................................
.............................. CYCLE   34 ..............................
........................................................................

 iter      E             dE          RMSdq      gap      omega  full diag
   1   -100.7650078 -0.100765E+03  0.249E-02    1.71       0.0  T
   2   -100.7650087 -0.839136E-06  0.145E-02    1.71       1.0  T
   3   -100.7650051  0.355825E-05  0.834E-03    1.71       1.5  T
   4   -100.7650091 -0.399794E-05  0.203E-03    1.71       6.2  T
   5   -100.7650093 -0.212491E-06  0.828E-04    1.71      15.2  T
   6   -100.7650093 -0.172093E-07  0.332E-04    1.71      37.9  T
     SCC iter.                  ...        0 min,  0.103 sec
     gradient                   ...        0 min,  0.047 sec
 * total energy  :   -99.5146735 Eh     change       -0.2709742E-04 Eh
   gradient norm :     0.0027011 Eh/α   predicted    -0.1695500E-04 ( -37.43%)
   displ. norm   :     0.0946537 α      lambda       -0.1470992E-04
   maximum displ.:     0.0556455 α      in ANC's #4, #5, #8, ...

........................................................................
.............................. CYCLE   35 ..............................
........................................................................

 iter      E             dE          RMSdq      gap      omega  full diag
   1   -100.7649168 -0.100765E+03  0.110E-02    1.71       0.0  T
   2   -100.7649169 -0.100927E-06  0.649E-03    1.71       1.9  T
   3   -100.7649164  0.503258E-06  0.289E-03    1.71       4.4  T
   4   -100.7649170 -0.551850E-06  0.626E-04    1.71      20.1  T
   5   -100.7649170 -0.208563E-07  0.277E-04    1.71      45.5  T
     SCC iter.                  ...        0 min,  0.076 sec
     gradient                   ...        0 min,  0.042 sec
 * total energy  :   -99.5146870 Eh     change       -0.1352882E-04 Eh
   gradient norm :     0.0023272 Eh/α   predicted    -0.7425025E-05 ( -45.12%)
   displ. norm   :     0.2584183 α      lambda       -0.4955424E-04
   maximum displ.:     0.1495042 α      in ANC's #4, #5, #1, ...

........................................................................
.............................. CYCLE   36 ..............................
........................................................................

 iter      E             dE          RMSdq      gap      omega  full diag
   1   -100.7650854 -0.100765E+03  0.300E-02    1.71       0.0  T
   2   -100.7650864 -0.902997E-06  0.177E-02    1.71       1.0  T
   3   -100.7650817  0.462712E-05  0.879E-03    1.71       1.4  T
   4   -100.7650869 -0.512988E-05  0.182E-03    1.71       6.9  T
   5   -100.7650870 -0.188220E-06  0.742E-04    1.71      17.0  T
   6   -100.7650871 -0.216882E-07  0.275E-04    1.71      45.8  T
     SCC iter.                  ...        0 min,  0.102 sec
     gradient                   ...        0 min,  0.052 sec
 * total energy  :   -99.5147239 Eh     change       -0.3691157E-04 Eh
   gradient norm :     0.0017851 Eh/α   predicted    -0.2643490E-04 ( -28.38%)
   displ. norm   :     0.4153008 α      lambda       -0.3208160E-04
   maximum displ.:     0.2405635 α      in ANC's #4, #5, #1, ...

........................................................................
.............................. CYCLE   37 ..............................
........................................................................

 iter      E             dE          RMSdq      gap      omega  full diag
   1   -100.7637631 -0.100764E+03  0.470E-02    1.72       0.0  T
   2   -100.7637646 -0.152291E-05  0.278E-02    1.72       1.0  T
   3   -100.7637553  0.935299E-05  0.120E-02    1.71       1.1  T
   4   -100.7637655 -0.101833E-04  0.251E-03    1.71       5.0  T
   5   -100.7637658 -0.345355E-06  0.106E-03    1.71      11.9  T
   6   -100.7637658 -0.349098E-07  0.403E-04    1.71      31.2  T
   7   -100.7637658 -0.190056E-08  0.153E-04    1.71      82.2  T
     SCC iter.                  ...        0 min,  0.121 sec
     gradient                   ...        0 min,  0.043 sec
 * total energy  :   -99.5147470 Eh     change       -0.2306785E-04 Eh
   gradient norm :     0.0039122 Eh/α   predicted    -0.1727445E-04 ( -25.11%)
   displ. norm   :     0.0713010 α      lambda       -0.2753888E-04
   maximum displ.:     0.0305540 α      in ANC's #1, #4, #11, ...

........................................................................
.............................. CYCLE   38 ..............................
........................................................................

 iter      E             dE          RMSdq      gap      omega  full diag
   1   -100.7651936 -0.100765E+03  0.990E-03    1.72       0.0  T
   2   -100.7651937 -0.163935E-06  0.576E-03    1.71       2.2  T
   3   -100.7651937  0.385621E-07  0.116E-03    1.71      10.9  T
   4   -100.7651937 -0.308675E-07  0.615E-04    1.71      20.5  T
   5   -100.7651938 -0.258568E-07  0.215E-04    1.71      58.5  T
     SCC iter.                  ...        0 min,  0.099 sec
     gradient                   ...        0 min,  0.054 sec
 * total energy  :   -99.5147662 Eh     change       -0.1922464E-04 Eh
   gradient norm :     0.0030146 Eh/α   predicted    -0.1383964E-04 ( -28.01%)
   displ. norm   :     0.1660995 α      lambda       -0.3193431E-04
   maximum displ.:     0.0946806 α      in ANC's #4, #1, #11, ...

........................................................................
.............................. CYCLE   39 ..............................
........................................................................

 iter      E             dE          RMSdq      gap      omega  full diag
   1   -100.7656356 -0.100766E+03  0.190E-02    1.71       0.0  T
   2   -100.7656358 -0.247141E-06  0.111E-02    1.71       1.1  T
   3   -100.7656356  0.280795E-06  0.264E-03    1.71       4.8  T
   4   -100.7656359 -0.344647E-06  0.814E-04    1.71      15.5  T
   5   -100.7656359 -0.143197E-07  0.370E-04    1.71      34.1  T
     SCC iter.                  ...        0 min,  0.079 sec
     gradient                   ...        0 min,  0.072 sec
 * total energy  :   -99.5147925 Eh     change       -0.2627981E-04 Eh
   gradient norm :     0.0019640 Eh/α   predicted    -0.1641173E-04 ( -37.55%)
   displ. norm   :     0.5598534 α      lambda       -0.5317803E-04
   maximum displ.:     0.3246524 α      in ANC's #4, #1, #10, ...

........................................................................
.............................. CYCLE   40 ..............................
........................................................................

 iter      E             dE          RMSdq      gap      omega  full diag
   1   -100.7633619 -0.100763E+03  0.641E-02    1.71       0.0  T
   2   -100.7633639 -0.208264E-05  0.375E-02    1.71       1.0  T
   3   -100.7633615  0.240206E-05  0.774E-03    1.71       1.6  T
   4   -100.7633645 -0.300266E-05  0.257E-03    1.71       4.9  T
   5   -100.7633646 -0.940220E-07  0.127E-03    1.71       9.9  T
   6   -100.7633647 -0.644659E-07  0.562E-04    1.71      22.4  T
   7   -100.7633647 -0.195557E-07  0.185E-04    1.71      68.0  T
     SCC iter.                  ...        0 min,  0.132 sec
     gradient                   ...        0 min,  0.049 sec
 * total energy  :   -99.5148243 Eh     change       -0.3183343E-04 Eh
   gradient norm :     0.0039510 Eh/α   predicted    -0.3029791E-04 (  -4.82%)
   displ. norm   :     0.0839093 α      lambda       -0.3923693E-04
   maximum displ.:     0.0433954 α      in ANC's #5, #11, #4, ...

........................................................................
.............................. CYCLE   41 ..............................
........................................................................

 iter      E             dE          RMSdq      gap      omega  full diag
   1   -100.7648304 -0.100765E+03  0.122E-02    1.71       0.0  T
   2   -100.7648308 -0.411784E-06  0.702E-03    1.71       1.8  T
   3   -100.7648298  0.957353E-06  0.454E-03    1.71       2.8  T
   4   -100.7648309 -0.111847E-05  0.108E-03    1.71      11.7  T
   5   -100.7648310 -0.695340E-07  0.376E-04    1.71      33.5  T
   6   -100.7648310 -0.450044E-08  0.179E-04    1.71      70.4  T
     SCC iter.                  ...        0 min,  0.109 sec
     gradient                   ...        0 min,  0.049 sec
 * total energy  :   -99.5148463 Eh     change       -0.2195589E-04 Eh
   gradient norm :     0.0025950 Eh/α   predicted    -0.1975875E-04 ( -10.01%)
   displ. norm   :     0.0860678 α      lambda       -0.1992685E-04
   maximum displ.:     0.0425895 α      in ANC's #4, #1, #10, ...

........................................................................
.............................. CYCLE   42 ..............................
........................................................................

 iter      E             dE          RMSdq      gap      omega  full diag
   1   -100.7652521 -0.100765E+03  0.106E-02    1.71       0.0  T
   2   -100.7652522 -0.119752E-06  0.615E-03    1.71       2.0  T
   3   -100.7652521  0.649146E-07  0.151E-03    1.71       8.3  T
   4   -100.7652522 -0.557196E-07  0.719E-04    1.71      17.5  T
   5   -100.7652522 -0.286251E-07  0.243E-04    1.71      51.8  T
     SCC iter.                  ...        0 min,  0.091 sec
     gradient                   ...        0 min,  0.039 sec
 * total energy  :   -99.5148632 Eh     change       -0.1690511E-04 Eh
   gradient norm :     0.0017670 Eh/α   predicted    -0.1003861E-04 ( -40.62%)
   displ. norm   :     0.4469329 α      lambda       -0.4592668E-04
   maximum displ.:     0.2410370 α      in ANC's #4, #1, #10, ...
 * RMSD in coord.:     0.4441576 α      energy gain  -0.9452936E-03 Eh

generating ANC from exact Hessian ...
Using Lindh-Hessian (1995)
 Shifting diagonal of input Hessian by    9.9096307539512513E-003
 Lowest  eigenvalues of input Hessian
    0.000000    0.000000    0.000000    0.000000    0.000000    0.000000
    0.010000    0.010106    0.010202    0.010505    0.011012    0.011100
    0.011475    0.011498    0.011995    0.012268    0.012539    0.012997
 Highest eigenvalues
    2.115282    2.138976    2.218123    2.505994    2.711358    3.602083


........................................................................
.............................. CYCLE   43 ..............................
........................................................................

 iter      E             dE          RMSdq      gap      omega  full diag
   1   -100.7640633 -0.100764E+03  0.534E-02    1.72       0.0  T
   2   -100.7640650 -0.171091E-05  0.311E-02    1.72       1.0  T
   3   -100.7640646  0.346701E-06  0.450E-03    1.72       2.8  T
   4   -100.7640651 -0.443145E-06  0.215E-03    1.72       5.9  T
   5   -100.7640653 -0.216591E-06  0.885E-04    1.72      14.2  T
   6   -100.7640653 -0.110121E-07  0.480E-04    1.72      26.2  T
     SCC iter.                  ...        0 min,  0.114 sec
     gradient                   ...        0 min,  0.056 sec
 * total energy  :   -99.5148947 Eh     change       -0.3154385E-04 Eh
   gradient norm :     0.0030441 Eh/α   predicted     0.0000000E+00 (-100.00%)
   displ. norm   :     0.0179674 α      lambda       -0.1616350E-04
   maximum displ.:     0.0062569 α      in ANC's #1, #7, #19, ...

........................................................................
.............................. CYCLE   44 ..............................
........................................................................

 iter      E             dE          RMSdq      gap      omega  full diag
   1   -100.7648578 -0.100765E+03  0.565E-03    1.72       0.0  T
   2   -100.7648579 -0.123641E-06  0.321E-03    1.72       3.9  T
   3   -100.7648578  0.784393E-07  0.162E-03    1.72       7.8  T
   4   -100.7648579 -0.735561E-07  0.695E-04    1.72      18.1  T
   5   -100.7648579 -0.325424E-07  0.191E-04    1.72      66.1  T
     SCC iter.                  ...        0 min,  0.093 sec
     gradient                   ...        0 min,  0.050 sec
 * total energy  :   -99.5149079 Eh     change       -0.1318197E-04 Eh
   gradient norm :     0.0015986 Eh/α   predicted    -0.9001811E-05 ( -31.71%)
   displ. norm   :     0.0495443 α      lambda       -0.1186584E-04
   maximum displ.:     0.0199398 α      in ANC's #1, #7, #19, ...

........................................................................
.............................. CYCLE   45 ..............................
........................................................................

 iter      E             dE          RMSdq      gap      omega  full diag
   1   -100.7656373 -0.100766E+03  0.104E-02    1.71       0.0  T
   2   -100.7656376 -0.384742E-06  0.601E-03    1.71       2.1  T
   3   -100.7656372  0.461046E-06  0.384E-03    1.71       3.3  T
   4   -100.7656377 -0.541419E-06  0.130E-03    1.71       9.7  T
   5   -100.7656378 -0.113622E-06  0.375E-04    1.71      33.6  T
   6   -100.7656378 -0.492942E-08  0.166E-04    1.71      75.8  T
     SCC iter.                  ...        0 min,  0.127 sec
     gradient                   ...        0 min,  0.039 sec
 * total energy  :   -99.5149176 Eh     change       -0.9681553E-05 Eh
   gradient norm :     0.0014693 Eh/α   predicted    -0.6516685E-05 ( -32.69%)
   displ. norm   :     0.0305808 α      lambda       -0.4765027E-05
   maximum displ.:     0.0137680 α      in ANC's #1, #7, #10, ...

........................................................................
.............................. CYCLE   46 ..............................
........................................................................

 iter      E             dE          RMSdq      gap      omega  full diag
   1   -100.7653623 -0.100765E+03  0.460E-03    1.71       0.0  T
   2   -100.7653623 -0.221088E-07  0.264E-03    1.71       4.8  T
   3   -100.7653622  0.150114E-06  0.173E-03    1.71       7.3  T
   4   -100.7653623 -0.172922E-06  0.342E-04    1.71      36.8  T
   5   -100.7653623 -0.616735E-08  0.124E-04    1.71     101.7  T
     SCC iter.                  ...        0 min,  0.090 sec
     gradient                   ...        0 min,  0.050 sec
 * total energy  :   -99.5149240 Eh     change       -0.6368327E-05 Eh
   gradient norm :     0.0011263 Eh/α   predicted    -0.2438715E-05 ( -61.71%)
   displ. norm   :     0.1170642 α      lambda       -0.1381580E-04
   maximum displ.:     0.0532330 α      in ANC's #1, #7, #10, ...

........................................................................
.............................. CYCLE   47 ..............................
........................................................................

 iter      E             dE          RMSdq      gap      omega  full diag
   1   -100.7647193 -0.100765E+03  0.161E-02    1.71       0.0  T
   2   -100.7647194 -0.154300E-06  0.935E-03    1.71       1.3  T
   3   -100.7647173  0.212820E-05  0.616E-03    1.71       2.0  T
   4   -100.7647198 -0.244252E-05  0.102E-03    1.71      12.4  T
   5   -100.7647198 -0.403298E-07  0.397E-04    1.71      31.7  T
   6   -100.7647198 -0.201707E-08  0.179E-04    1.71      70.4  T
     SCC iter.                  ...        0 min,  0.104 sec
     gradient                   ...        0 min,  0.053 sec
 * total energy  :   -99.5149363 Eh     change       -0.1234350E-04 Eh
   gradient norm :     0.0010717 Eh/α   predicted    -0.6951317E-05 ( -43.68%)
   displ. norm   :     0.0544588 α      lambda       -0.3352789E-05
   maximum displ.:     0.0277196 α      in ANC's #1, #2, #7, ...

........................................................................
.............................. CYCLE   48 ..............................
........................................................................

 iter      E             dE          RMSdq      gap      omega  full diag
   1   -100.7647530 -0.100765E+03  0.673E-03    1.71       0.0  T
   2   -100.7647530 -0.194850E-07  0.397E-03    1.71       3.2  T
   3   -100.7647529  0.909521E-07  0.121E-03    1.71      10.4  T
   4   -100.7647530 -0.975344E-07  0.346E-04    1.71      36.4  T
   5   -100.7647530 -0.513218E-08  0.129E-04    1.71      97.7  T
     SCC iter.                  ...        0 min,  0.090 sec
     gradient                   ...        0 min,  0.049 sec
 * total energy  :   -99.5149400 Eh     change       -0.3658132E-05 Eh
   gradient norm :     0.0011307 Eh/α   predicted    -0.1679360E-05 ( -54.09%)
   displ. norm   :     0.0795755 α      lambda       -0.4986810E-05
   maximum displ.:     0.0420595 α      in ANC's #1, #2, #10, ...

........................................................................
.............................. CYCLE   49 ..............................
........................................................................

 iter      E             dE          RMSdq      gap      omega  full diag
   1   -100.7649405 -0.100765E+03  0.930E-03    1.71       0.0  T
   2   -100.7649405 -0.507615E-07  0.551E-03    1.71       2.3  T
   3   -100.7649404  0.104903E-06  0.135E-03    1.71       9.4  T
   4   -100.7649405 -0.106223E-06  0.497E-04    1.71      25.3  T
   5   -100.7649405 -0.146457E-07  0.177E-04    1.71      71.3  T
     SCC iter.                  ...        0 min,  0.103 sec
     gradient                   ...        0 min,  0.062 sec
 * total energy  :   -99.5149458 Eh     change       -0.5793709E-05 Eh
   gradient norm :     0.0009498 Eh/α   predicted    -0.2502408E-05 ( -56.81%)
   displ. norm   :     0.1008083 α      lambda       -0.5911415E-05
   maximum displ.:     0.0559742 α      in ANC's #1, #2, #10, ...

........................................................................
.............................. CYCLE   50 ..............................
........................................................................

 iter      E             dE          RMSdq      gap      omega  full diag
   1   -100.7651110 -0.100765E+03  0.124E-02    1.71       0.0  T
   2   -100.7651111 -0.764549E-07  0.733E-03    1.71       1.7  T
   3   -100.7651099  0.120240E-05  0.437E-03    1.71       2.9  T
   4   -100.7651112 -0.133934E-05  0.603E-04    1.71      20.9  T
   5   -100.7651112 -0.155242E-07  0.283E-04    1.71      44.6  T
   6   -100.7651112 -0.183263E-08  0.121E-04    1.71     104.1  T
     SCC iter.                  ...        0 min,  0.094 sec
     gradient                   ...        0 min,  0.067 sec
 * total energy  :   -99.5149522 Eh     change       -0.6419419E-05 Eh
   gradient norm :     0.0006166 Eh/α   predicted    -0.2973438E-05 ( -53.68%)
   displ. norm   :     0.0787816 α      lambda       -0.3588176E-05
   maximum displ.:     0.0454344 α      in ANC's #1, #2, #10, ...

........................................................................
.............................. CYCLE   51 ..............................
........................................................................

 iter      E             dE          RMSdq      gap      omega  full diag
   1   -100.7652210 -0.100765E+03  0.936E-03    1.71       0.0  T
   2   -100.7652210 -0.525165E-07  0.555E-03    1.71       2.3  T
   3   -100.7652202  0.827448E-06  0.380E-03    1.71       3.3  T
   4   -100.7652211 -0.953485E-06  0.535E-04    1.71      23.6  T
   5   -100.7652212 -0.124919E-07  0.245E-04    1.71      51.5  T
     SCC iter.                  ...        0 min,  0.080 sec
     gradient                   ...        0 min,  0.043 sec
 * total energy  :   -99.5149562 Eh     change       -0.3973900E-05 Eh
   gradient norm :     0.0006247 Eh/α   predicted    -0.1802219E-05 ( -54.65%)
   displ. norm   :     0.0677273 α      lambda       -0.2929673E-05
   maximum displ.:     0.0395589 α      in ANC's #1, #2, #11, ...

   *** GEOMETRY OPTIMIZATION CONVERGED AFTER 51 ITERATIONS ***

------------------------------------------------------------------------
 total energy gain   :        -0.0308989 Eh      -19.3894 kcal/mol
 total RMSD          :         0.9451475 a0        0.5002 Å
 total power (kW/mol):        -1.5906887 (step)   -8.4309 (real)
------------------------------------------------------------------------

 ANCopt (total)                0 d,  0 h,  0 min,  9.625 sec
 optimizer setup                ...        0 min,  0.002 sec (  0.022%)
 model hessian                  ...        0 min,  0.073 sec (  0.757%)
 ANC generation                 ...        0 min,  0.055 sec (  0.575%)
 coordinate transformation      ...        0 min,  0.008 sec (  0.086%)
 single point calculation       ...        0 min,  9.366 sec ( 97.309%)
 optimization log               ...        0 min,  0.014 sec (  0.146%)
 hessian update                 ...        0 min,  0.005 sec (  0.052%)
 rational function              ...        0 min,  0.026 sec (  0.265%)

================
 final structure:
================
63
 xtb: 6.7.1 (unknown)
C            0.99503790958388       -1.07065648991237        1.22165622874503
C            2.50429489845763       -1.11428747467710        1.41554247648325
C            3.24422570883275       -0.71920290506710        0.13296288632207
C            4.71358206322561       -0.79647524970677        0.32572199716025
N            5.51294872463987        0.23377516980141        0.20352057195384
N            6.77328936661740       -0.13347115079701        0.46359374096417
C            7.84425552792665        0.80816201615259        0.31475479691659
C            6.82715575862161       -1.46840058263473        0.75955084068188
C            5.47624825785136       -1.95770392181728        0.67487503175961
N            5.10664592869670       -3.19713008251968        0.88288159246291
C            6.04567443891381       -4.11428363283762        1.16130510295793
O            5.87246436307309       -5.29092847789604        1.35540627645412
N            7.41119899094905       -3.63285843741253        1.25575089279734
C            7.81868563477345       -2.35839250266868        1.11062293400988
C            9.24880637740366       -2.03573896995202        1.26617271113706
C           10.14038490158119       -2.66562594961121        0.39629537108288
C           11.48173584223084       -2.36228167417276        0.41782554247077
C           11.97907521208494       -1.42147832581462        1.30396154380733
C           11.11962849375603       -0.81527702943600        2.19295615532112
C            9.75171471125100       -1.11936159502727        2.20542569456664
O            9.04104573689272       -0.47001298562053        3.15327884801160
C            7.84914788918586       -1.01190380591633        3.71142477055587
C            7.79198636070574       -0.58847806354354        5.17167078486393
S           12.56740209398770       -3.12064345056162       -0.79187413097942
O           13.89485534012836       -3.15588868998367       -0.25948471405434
O           11.95640443578331       -4.33121064743038       -1.24866673938379
N           12.57101788656373       -2.05379834012321       -2.06476465797891
C           11.33092677251606       -1.91505028339190       -2.78664242346592
C           11.61290279359293       -1.24314899470438       -4.12769193053370
N           12.23937164414704        0.04810032994722       -3.90201435270910
C           12.42414456592102        0.77579251119593       -5.13984167463047
C           13.49466836427854       -0.12951205107517       -3.19249252776033
C           13.22709610711347       -0.78904017677433       -1.84250303387591
H            0.48595547650694       -1.34747693290417        2.14166920710646
H            0.69264780163817       -1.76433959659118        0.44086593680504
H            0.67260681013983       -0.07088643629858        0.93755988609222
H            2.81315989521138       -2.12193513099543        1.69703432521114
H            2.79028277525022       -0.43155420947627        2.21936479456540
H            2.98109957363418        0.29635916057001       -0.16613240970567
H            2.95666636240216       -1.41003784733974       -0.66300744433455
H            7.41710358469533        1.71274764961035       -0.11300294177316
H            8.61252869408111        0.41453113582084       -0.35415910213227
H            8.30034378713759        1.04774483108307        1.27780909803827
H            8.09041525466881       -4.35135882160476        1.47869782329149
H            9.78427032758820       -3.39438766591724       -0.31609463933723
H           13.03597576392393       -1.21045985315311        1.30761276017589
H           11.47627077586199       -0.09997979631679        2.91689761025490
H            7.85415633393345       -2.10389810143303        3.63413945285240
H            6.97446653948000       -0.62191837933608        3.17781401931589
H            8.65189373522911       -0.97732061646679        5.71015323775160
H            6.88331693822335       -0.97146227055018        5.62605699238465
H            7.79732166296232        0.49538995435509        5.24330175431206
H           10.61397806687236       -1.30036173492729       -2.21841101352282
H           10.92324872800549       -2.91557850634582       -2.92926307739873
H           10.67255983861604       -1.08645573513617       -4.66058449468786
H           12.25676686414194       -1.90596255106637       -4.73074342570524
H           11.45498191532512        0.92082558671443       -5.61406700249828
H           13.08708819106245        0.25367453653025       -5.84599920966500
H           12.85219732108195        1.75161530380908       -4.91658311614106
H           13.94763696853942        0.85156295532792       -3.03419787060728
H           14.19834260067940       -0.75770645673898       -3.76509161482194
H           12.59594820282445       -0.12168887297326       -1.23423112834007
H           14.15868610899001       -0.99475968427476       -1.31593901362236

 Bond Distances (Angstroems)
 ---------------------------
C1-C2=1.5223         C1-H34=1.0873        C1-H35=1.0873        C1-H36=1.0882        C2-C1=1.5223         C2-C3=1.5325         
C2-H37=1.0909        C2-H38=1.0927        C3-C2=1.5325         C3-C4=1.4840         C3-H39=1.0909        C3-H40=1.0925        
C4-C3=1.4840         C4-N5=1.3097         C4-C9=1.4325         N5-C4=1.3097         N5-N6=1.3383         N6-N5=1.3383         
N6-C7=1.4338         N6-C8=1.3684         C7-N6=1.4338         C7-H41=1.0880        C7-H42=1.0921        C7-H43=1.0922        
C8-N6=1.3684         C8-C9=1.4393         C8-C14=1.3778        C9-C4=1.4325         C9-C8=1.4393         C9-N10=1.3100        
N10-C9=1.3100        N10-C11=1.3418       C11-N10=1.3418       C11-O12=1.2051       C11-N13=1.4510       O12-C11=1.2051       
N13-C11=1.4510       N13-C14=1.3459       N13-H44=1.0135       C14-C8=1.3778        C14-N13=1.3459       C14-C15=1.4743       
C15-C14=1.4743       C15-C16=1.3958       C15-C20=1.4053       C16-C15=1.3958       C16-C17=1.3754       C16-H45=1.0795       
C17-C16=1.3754       C17-C18=1.3848       C17-S24=1.7936       C18-C17=1.3848       C18-C19=1.3771       C18-H46=1.0778       
C19-C18=1.3771       C19-C20=1.4014       C19-H47=1.0784       C20-C15=1.4053       C20-C19=1.4014       C20-O21=1.3510       
O21-C20=1.3510       O21-C22=1.4233       C22-O21=1.4233       C22-C23=1.5215       C22-H48=1.0947       C22-H49=1.0963       
C23-C22=1.5215       C23-H50=1.0866       C23-H51=1.0857       C23-H52=1.0862       S24-C17=1.7936       S24-O25=1.4307       
S24-O26=1.4309       S24-N27=1.6608       O25-S24=1.4307       O26-S24=1.4309       N27-S24=1.6608       N27-C28=1.4416       
N27-C33=1.4420       C28-N27=1.4416       C28-C29=1.5262       C28-H53=1.1022       C28-H54=1.0898       C29-C28=1.5262       
C29-N30=1.4528       C29-H55=1.0921       C29-H56=1.1034       N30-C29=1.4528       N30-C31=1.4477       N30-C32=1.4528       
C31-N30=1.4477       C31-H57=1.0887       C31-H58=1.1003       C31-H59=1.0887       C32-N30=1.4528       C32-C33=1.5261       
C32-H60=1.0921       C32-H61=1.1035       C33-N27=1.4420       C33-C32=1.5261       C33-H62=1.1017       C33-H63=1.0897       
H34-C1=1.0873        H35-C1=1.0873        H36-C1=1.0882        H37-C2=1.0909        H38-C2=1.0927        H39-C3=1.0909        
H40-C3=1.0925        H41-C7=1.0880        H42-C7=1.0921        H43-C7=1.0922        H44-N13=1.0135       H45-C16=1.0795       
H46-C18=1.0778       H47-C19=1.0784       H48-C22=1.0947       H49-C22=1.0963       H50-C23=1.0866       H51-C23=1.0857       
H52-C23=1.0862       H53-C28=1.1022       H54-C28=1.0898       H55-C29=1.0921       H56-C29=1.1034       H57-C31=1.0887       
H58-C31=1.1003       H59-C31=1.0887       H60-C32=1.0921       H61-C32=1.1035       H62-C33=1.1017       H63-C33=1.0897       
 C  H  Rav=1.0910 sigma=0.0066  Rmin=1.0778  Rmax=1.1035    29
 C  C  Rav=1.4485 sigma=0.0605  Rmin=1.3754  Rmax=1.5325    16
 N  H  Rav=1.0135 sigma=0.0000  Rmin=1.0135  Rmax=1.0135     1
 N  C  Rav=1.3998 sigma=0.0568  Rmin=1.3097  Rmax=1.4528    12
 N  N  Rav=1.3383 sigma=0.0000  Rmin=1.3383  Rmax=1.3383     1
 O  C  Rav=1.3264 sigma=0.0908  Rmin=1.2051  Rmax=1.4233     3
 S  C  Rav=1.7936 sigma=0.0000  Rmin=1.7936  Rmax=1.7936     1
 S  N  Rav=1.6608 sigma=0.0000  Rmin=1.6608  Rmax=1.6608     1
 S  O  Rav=1.4308 sigma=0.0001  Rmin=1.4307  Rmax=1.4309     2

 selected bond angles (degree)
 --------------------
H34-C1-C2=110.43               H35-C1-C2=110.42               H35-C1-H34=108.36              H36-C1-C2=110.69               
H36-C1-H34=108.43              H36-C1-H35=108.44              C3-C2-C1=111.39                H37-C2-C1=109.88               
H37-C2-C3=108.51               H38-C2-C1=109.59               H38-C2-C3=109.16               H38-C2-H37=108.25              
C4-C3-C2=110.85                H39-C3-C2=110.67               H39-C3-C4=108.84               H40-C3-C2=108.64               
H40-C3-C4=108.80               H40-C3-H39=108.99              N5-C4-C3=123.45                C9-C4-C3=126.94                
C9-C4-N5=109.60                N6-N5-C4=109.93                C7-N6-N5=120.20                C8-N6-N5=110.29                
C8-N6-C7=129.33                H41-C7-N6=107.07               H42-C7-N6=110.63               H42-C7-H41=109.58              
H43-C7-N6=111.37               H43-C7-H41=109.16              H43-C7-H42=108.99              C9-C8-N6=106.38                
C14-C8-N6=135.53               C14-C8-C9=118.09               C8-C9-C4=103.80                N10-C9-C4=130.95               
N10-C9-C8=125.25               C11-N10-C9=118.83              

 selected dihedral angles (degree)
 ---------------------------------
C3-C2-C1-H34=180.34           C3-C2-C1-H35= 60.52           C3-C2-C1-H36=300.43           H37-C2-C1-H34= 60.07          
H37-C2-C1-H35=300.24          H37-C2-C1-H36=180.16          H38-C2-C1-H34=301.24          H38-C2-C1-H35=181.42          
H38-C2-C1-H36= 61.33          C4-C3-C2-C1=181.33            C4-C3-C2-H37=302.41           C4-C3-C2-H38= 60.18           
H39-C3-C2-C1= 60.46           H39-C3-C2-H37=181.54          H39-C3-C2-H38=299.31          H40-C3-C2-C1=300.83           
H40-C3-C2-H37= 61.91          H40-C3-C2-H38=179.69          N5-C4-C3-C2=240.89            N5-C4-C3-H39=  2.83           
N5-C4-C3-H40=121.48           C9-C4-C3-C2= 60.32            C9-C4-C3-H39=182.26           C9-C4-C3-H40=300.91           
N6-N5-C4-C3=178.63            N6-N5-C4-C9=359.11            C7-N6-N5-C4=176.21            C8-N6-N5-C4=  0.65            
H41-C7-N6-N5=354.24           H41-C7-N6-C8=168.86           H42-C7-N6-N5=234.89           H42-C7-N6-C8= 49.50           
H43-C7-N6-N5=113.51           H43-C7-N6-C8=288.13           C9-C8-N6-N5=359.86            C9-C8-N6-C7=184.83            
C14-C8-N6-N5=180.96           C14-C8-N6-C7=  5.92           C8-C9-C4-C3=181.27            C8-C9-C4-N5=  0.77            
N10-C9-C4-C3=  1.30           N10-C9-C4-N5=180.80           C4-C9-C8-N6=359.63            C4-C9-C8-C14=178.76           
N10-C9-C8-N6=179.60           N10-C9-C8-C14=358.73          C11-N10-C9-C4=177.91          C11-N10-C9-C8=357.95          
           -------------------------------------------------
          |                Final Singlepoint                |
           -------------------------------------------------

          ...................................................
          :                      SETUP                      :
          :.................................................:
          :  # basis functions                 168          :
          :  # atomic orbitals                 167          :
          :  # shells                           97          :
          :  # electrons                       178          :
          :  max. iterations                   250          :
          :  Hamiltonian                  GFN2-xTB          :
          :  restarted?                      false          :
          :  GBSA solvation                  false          :
          :  PC potential                    false          :
          :  electronic temp.          300.0000000     K    :
          :  accuracy                    1.0000000          :
          :  -> integral cutoff          0.2500000E+02      :
          :  -> integral neglect         0.1000000E-07      :
          :  -> SCF convergence          0.1000000E-05 Eh   :
          :  -> wf. convergence          0.1000000E-03 e    :
          :  Broyden damping             0.4000000          :
          :  net charge                          0          :
          :  unpaired electrons                  0          :
          ...................................................

 iter      E             dE          RMSdq      gap      omega  full diag
   1   -100.7652212 -0.100765E+03  0.101E-04    1.71       0.0  T
   2   -100.7652212 -0.822240E-10  0.687E-05    1.71     183.3  T
   3   -100.7652212 -0.149981E-09  0.386E-05    1.71     326.1  T

   *** convergence criteria satisfied after 3 iterations ***

         #    Occupation            Energy/Eh            Energy/eV
      -------------------------------------------------------------
         1        2.0000           -0.7831940             -21.3118
       ...           ...                  ...                  ...
        83        2.0000           -0.4207547             -11.4493
        84        2.0000           -0.4185739             -11.3900
        85        2.0000           -0.4080697             -11.1041
        86        2.0000           -0.4013686             -10.9218
        87        2.0000           -0.3814481             -10.3797
        88        2.0000           -0.3768184             -10.2538
        89        2.0000           -0.3721588             -10.1270 (HOMO)
        90                         -0.3093095              -8.4167 (LUMO)
        91                         -0.2738734              -7.4525
        92                         -0.2703208              -7.3558
        93                         -0.2135331              -5.8105
        94                         -0.2039519              -5.5498
       ...                                ...                  ...
       167                          1.2343942              33.5896
      -------------------------------------------------------------
                  HL-Gap            0.0628494 Eh            1.7102 eV
             Fermi-level           -0.3407341 Eh           -9.2718 eV

 SCC (total)                   0 d,  0 h,  0 min,  0.111 sec
 SCC setup                      ...        0 min,  0.000 sec (  0.198%)
 Dispersion                     ...        0 min,  0.001 sec (  0.640%)
 classical contributions        ...        0 min,  0.000 sec (  0.094%)
 integral evaluation            ...        0 min,  0.008 sec (  7.509%)
 iterations                     ...        0 min,  0.052 sec ( 46.818%)
 molecular gradient             ...        0 min,  0.047 sec ( 42.754%)
 printout                       ...        0 min,  0.002 sec (  1.970%)

         :::::::::::::::::::::::::::::::::::::::::::::::::::::
         ::                     SUMMARY                     ::
         :::::::::::::::::::::::::::::::::::::::::::::::::::::
         :: total energy             -99.514956157856 Eh    ::
         :: gradient norm              0.000626419050 Eh/a0 ::
         :: HOMO-LUMO gap              1.710218395876 eV    ::
         ::.................................................::
         :: SCC energy              -100.763507531826 Eh    ::
         :: -> isotropic ES            0.138813430010 Eh    ::
         :: -> anisotropic ES          0.002137594214 Eh    ::
         :: -> anisotropic XC          0.045336945477 Eh    ::
         :: -> dispersion             -0.075468943971 Eh    ::
         :: repulsion energy           1.248551373970 Eh    ::
         :: add. restraining           0.000000000000 Eh    ::
         :: total charge              -0.000000000000 e     ::
         :::::::::::::::::::::::::::::::::::::::::::::::::::::

           -------------------------------------------------
          |                Property Printout                |
           -------------------------------------------------

    * Orbital Energies and Occupations

         #    Occupation            Energy/Eh            Energy/eV
      -------------------------------------------------------------
         1        2.0000           -0.7831940             -21.3118
       ...           ...                  ...                  ...
        77        2.0000           -0.4468746             -12.1601
        78        2.0000           -0.4465289             -12.1507
        79        2.0000           -0.4422413             -12.0340
        80        2.0000           -0.4363786             -11.8745
        81        2.0000           -0.4266075             -11.6086
        82        2.0000           -0.4251265             -11.5683
        83        2.0000           -0.4207547             -11.4493
        84        2.0000           -0.4185739             -11.3900
        85        2.0000           -0.4080697             -11.1041
        86        2.0000           -0.4013686             -10.9218
        87        2.0000           -0.3814481             -10.3797
        88        2.0000           -0.3768184             -10.2538
        89        2.0000           -0.3721588             -10.1270 (HOMO)
        90                         -0.3093095              -8.4167 (LUMO)
        91                         -0.2738734              -7.4525
        92                         -0.2703208              -7.3558
        93                         -0.2135331              -5.8105
        94                         -0.2039519              -5.5498
        95                         -0.1563832              -4.2554
        96                         -0.1279436              -3.4815
        97                         -0.1163914              -3.1672
        98                         -0.0825637              -2.2467
        99                         -0.0582543              -1.5852
       100                         -0.0552986              -1.5048
       ...                                ...                  ...
       167                          1.2343942              33.5896
      -------------------------------------------------------------
                  HL-Gap            0.0628494 Eh            1.7102 eV
             Fermi-level           -0.3407341 Eh           -9.2718 eV

     #   Z          covCN         q      C6AA      α(0)
     1   6          3.752    -0.105    22.556     6.773
     2   6          3.803    -0.054    21.541     6.608
     3   6          3.806    -0.063    21.712     6.633
     4   6          3.060     0.059    26.614     8.460
     5   7          2.009    -0.205    26.223     7.595
     6   7          2.948     0.046    20.439     6.715
     7   6          3.690    -0.059    21.828     6.687
     8   6          3.047    -0.004    28.074     8.690
     9   6          3.044     0.081    26.164     8.389
    10   7          1.830    -0.281    28.123     7.858
    11   6          2.743     0.336    21.293     7.555
    12   8          0.859    -0.435    22.392     6.344
    13   7          2.713    -0.158    24.420     7.339
    14   6          2.897     0.080    26.207     8.393
    15   6          2.972    -0.031    28.781     8.800
    16   6          2.969    -0.034    28.846     8.810
    17   6          2.967    -0.102    30.560     9.068
    18   6          2.951    -0.026    28.662     8.781
    19   6          2.923    -0.049    29.223     8.865
    20   6          2.854     0.150    24.735     8.152
    21   8          1.706    -0.264    18.377     5.788
    22   6          3.683     0.085    19.367     6.302
    23   6          3.751    -0.117    22.801     6.810
    24  16          3.885     1.080   104.385    17.196
    25   8          0.860    -0.549    24.899     6.690
    26   8          0.860    -0.550    24.930     6.694
    27   7          2.739    -0.267    26.915     7.705
    28   6          3.854     0.010    20.365     6.418
    29   6          3.773     0.009    20.460     6.445
    30   7          2.729    -0.175    24.792     7.395
    31   6          3.713    -0.038    21.385     6.607
    32   6          3.773     0.009    20.463     6.446
    33   6          3.852     0.008    20.406     6.425
    34   1          0.925     0.038     2.476     2.461
    35   1          0.925     0.040     2.452     2.449
    36   1          0.925     0.035     2.515     2.480
    37   1          0.924     0.054     2.267     2.354
    38   1          0.924     0.029     2.601     2.522
    39   1          0.924     0.055     2.264     2.353
    40   1          0.924     0.058     2.218     2.329
    41   1          0.925     0.090     1.876     2.142
    42   1          0.924     0.051     2.309     2.376
    43   1          0.924     0.066     2.133     2.284
    44   1          0.860     0.199     1.110     1.650
    45   1          0.926     0.066     2.131     2.283
    46   1          0.926     0.070     2.084     2.257
    47   1          0.926     0.075     2.030     2.228
    48   1          0.924     0.033     2.540     2.492
    49   1          0.924     0.039     2.456     2.451
    50   1          0.925     0.060     2.200     2.319
    51   1          0.925     0.058     2.224     2.332
    52   1          0.925     0.063     2.162     2.299
    53   1          0.923     0.019     2.744     2.591
    54   1          0.925     0.062     2.176     2.307
    55   1          0.924     0.048     2.347     2.396
    56   1          0.923     0.029     2.598     2.521
    57   1          0.925     0.046     2.367     2.406
    58   1          0.923     0.020     2.736     2.587
    59   1          0.925     0.046     2.369     2.407
    60   1          0.924     0.048     2.348     2.396
    61   1          0.923     0.029     2.603     2.523
    62   1          0.923     0.024     2.668     2.554
    63   1          0.925     0.063     2.166     2.301

 Mol. C6AA /au·bohr⁶  :      44990.614201
 Mol. C8AA /au·bohr⁸  :    1068876.581071
 Mol. α(0) /au        :        324.488080


Wiberg/Mayer (AO) data.
largest (>0.10) Wiberg bond orders for each atom

 ---------------------------------------------------------------------------
     #   Z sym  total        # sym  WBO       # sym  WBO       # sym  WBO
 ---------------------------------------------------------------------------
     1   6      3.995 --     2      1.019    36      0.988    35      0.987
                            34      0.986
     2   6      3.993 --     1      1.019     3      0.987    38      0.980
                            37      0.976
     3   6      3.993 --     4      1.022     2      0.987    39      0.973
                            40      0.957
     4   6      3.972 --     5      1.558     9      1.172     3      1.022
                             6      0.110
     5   7      2.998 --     4      1.558     6      1.177
     6   7      3.593 --     5      1.177     8      1.157     7      1.002
                             4      0.110
     7   6      3.965 --     6      1.002    41      0.976    42      0.975
                            43      0.970
     8   6      3.960 --    14      1.376     6      1.157     9      1.142
     9   6      3.975 --    10      1.433     4      1.172     8      1.142
    10   7      3.072 --     9      1.433    11      1.233    12      0.120
                            14      0.105
    11   6      3.946 --    12      1.665    10      1.233    13      0.963
    12   8      2.007 --    11      1.665    13      0.138    10      0.120
    13   7      3.553 --    14      1.298    11      0.963    44      0.928
                            12      0.138
    14   6      3.969 --     8      1.376    13      1.298    15      1.024
                            10      0.105
    15   6      3.982 --    16      1.383    20      1.322    14      1.024
    16   6      3.985 --    17      1.441    15      1.383    45      0.962
                            19      0.104
    17   6      3.968 --    16      1.441    18      1.387    24      0.745
    18   6      3.981 --    19      1.476    17      1.387    46      0.963
    19   6      3.984 --    18      1.476    20      1.340    47      0.963
                            16      0.104
    20   6      3.941 --    19      1.340    15      1.322    21      1.093
    21   8      2.247 --    20      1.093    22      0.946
    22   6      3.936 --    23      1.013    48      0.969    49      0.966
                            21      0.946
    23   6      3.988 --    22      1.013    50      0.986    52      0.985
                            51      0.982
    24  16      5.064 --    25      1.646    26      1.646    27      0.953
                            17      0.745
    25   8      1.944 --    24      1.646    26      0.109
    26   8      1.944 --    24      1.646    25      0.109
    27   7      3.238 --    28      0.993    33      0.992    24      0.953
    28   6      3.973 --    29      0.996    27      0.993    54      0.970
                            53      0.966
    29   6      3.987 --    30      1.005    28      0.996    55      0.971
                            56      0.963
    30   7      3.118 --    31      1.012    29      1.005    32      1.005
    31   6      3.983 --    30      1.012    59      0.982    57      0.982
                            58      0.974
    32   6      3.987 --    30      1.005    33      0.996    60      0.971
                            61      0.963
    33   6      3.972 --    32      0.996    27      0.992    63      0.969
                            62      0.966
    34   1      0.998 --     1      0.986
    35   1      0.998 --     1      0.987
    36   1      0.999 --     1      0.988
    37   1      0.997 --     2      0.976
    38   1      0.999 --     2      0.980
    39   1      0.996 --     3      0.973
    40   1      0.996 --     3      0.957
    41   1      0.991 --     7      0.976
    42   1      0.996 --     7      0.975
    43   1      0.993 --     7      0.970
    44   1      0.960 --    13      0.928
    45   1      0.996 --    16      0.962
    46   1      0.994 --    18      0.963
    47   1      0.992 --    19      0.963
    48   1      0.999 --    22      0.969
    49   1      0.997 --    22      0.966
    50   1      0.996 --    23      0.986
    51   1      0.996 --    23      0.982
    52   1      0.996 --    23      0.985
    53   1      1.000 --    28      0.966
    54   1      0.996 --    28      0.970
    55   1      0.997 --    29      0.971
    56   1      0.999 --    29      0.963
    57   1      0.998 --    31      0.982
    58   1      1.000 --    31      0.974
    59   1      0.998 --    31      0.982
    60   1      0.997 --    32      0.971
    61   1      0.999 --    32      0.963
    62   1      0.999 --    33      0.966
    63   1      0.996 --    33      0.969
 ---------------------------------------------------------------------------

Topologies differ in total number of bonds
Writing topology from bond orders to xtbtopo.mol

molecular dipole:
                 x           y           z       tot (Debye)
 q only:        0.254       3.938       0.194
   full:        0.942       3.656       0.102       9.599
molecular quadrupole (traceless):
                xx          xy          yy          xz          yz          zz
 q only:        5.837     101.134     -46.413       3.604      -1.197      40.576
  q+dip:       23.849      88.477     -58.146       0.638       2.333      34.297
   full:       22.220      89.132     -59.447       0.118       0.396      37.227

           -------------------------------------------------
          |                Geometry Summary                 |
           -------------------------------------------------

      molecular mass/u    :      474.5770386
   center of mass at/Å    :        8.9600607      -1.6739515       0.1151204
  moments of inertia/u·Å² :        0.2644389E+04   0.7549716E+04   0.8188578E+04
rotational constants/cm⁻¹ :        0.6374868E-02   0.2232883E-02   0.2058676E-02

 * 64 selected distances

     #   Z          #   Z                                           value/Å
     1   6          2   6                                         1.5222853
     2   6          3   6                                         1.5325144
     3   6          4   6                                         1.4839594
     4   6          5   7                                         1.3097086
     5   7          6   7                                         1.3382701
     6   7          7   6                                         1.4338044
     6   7          8   6                                         1.3684039
     4   6          9   6                                         1.4324873
     8   6          9   6                                         1.4392843
     9   6         10   7                                         1.3099810
    10   7         11   6                                         1.3418141
    11   6         12   8                                         1.2050603
     8   6         14   6                                         1.3778494
    13   7         14   6                                         1.3458719
    15   6         16   6                                         1.3958355
    16   6         17   6                                         1.3753923
    17   6         18   6                                         1.3848086
    18   6         19   6                                         1.3771131
    15   6         20   6                                         1.4052974
    19   6         20   6                                         1.4013606
    20   6         21   8                                         1.3509737
    21   8         22   6                                         1.4233037
    22   6         23   6                                         1.5214715
    17   6         24  16                                         1.7936437 (max)
    24  16         25   8                                         1.4306688
    24  16         26   8                                         1.4308917
    24  16         27   7                                         1.6608499
    27   7         28   6                                         1.4415911
    28   6         29   6                                         1.5262294
    29   6         30   7                                         1.4528313
    30   7         31   6                                         1.4477202
    30   7         32   6                                         1.4528378
    27   7         33   6                                         1.4420307
    32   6         33   6                                         1.5261207
     1   6         34   1                                         1.0872988
     1   6         35   1                                         1.0873223
     1   6         36   1                                         1.0882155
     2   6         37   1                                         1.0908663
     2   6         38   1                                         1.0927233
     3   6         39   1                                         1.0908987
     3   6         40   1                                         1.0924799
     7   6         41   1                                         1.0879848
     7   6         42   1                                         1.0920783
     7   6         43   1                                         1.0921951
    13   7         44   1                                         1.0135497 (min)
    16   6         45   1                                         1.0795420
    18   6         46   1                                         1.0777667
    19   6         47   1                                         1.0783948
    22   6         48   1                                         1.0947374
    22   6         49   1                                         1.0963105
    23   6         50   1                                         1.0865555
    23   6         51   1                                         1.0857366
    23   6         52   1                                         1.0862456
    28   6         53   1                                         1.1021545
    28   6         54   1                                         1.0897702
    29   6         55   1                                         1.0921412
    29   6         56   1                                         1.1034283
    31   6         57   1                                         1.0886692
    31   6         58   1                                         1.1003455
    31   6         59   1                                         1.0887166
    32   6         60   1                                         1.0921292
    32   6         61   1                                         1.1034743
    33   6         62   1                                         1.1016807
    33   6         63   1                                         1.0897019

 * 9 distinct bonds (by element types)

   Z      Z             #   av. dist./Å        max./Å        min./Å
   1 H    6 C          29     1.0910194     1.1034743     1.0777667
   6 C    6 C          15     1.4468006     1.5325144     1.3753923
   1 H    7 N           1     1.0135497     1.0135497     1.0135497
   6 C    7 N          11     1.3951450     1.4528378     1.3097086
   7 N    7 N           1     1.3382701     1.3382701     1.3382701
   6 C    8 O           3     1.3264459     1.4233037     1.2050603
   6 C   16 S           1     1.7936437     1.7936437     1.7936437
Note: The following floating-point exceptions are signalling: IEEE_UNDERFLOW_FLAG
normal termination of xtb
   7 N   16 S           1     1.6608499     1.6608499     1.6608499
   8 O   16 S           2     1.4307802     1.4308917     1.4306688


optimized geometry written to: xtbopt.xyz


           -------------------------------------------------
          | TOTAL ENERGY              -99.514956157856 Eh   |
          | GRADIENT NORM               0.000626419050 Eh/α |
          | HOMO-LUMO GAP               1.710218395876 eV   |
           -------------------------------------------------

------------------------------------------------------------------------
 * finished run on 2026/08/28 at 19:10:43.497     
------------------------------------------------------------------------
 total:
 * wall-time:     0 d,  0 h,  0 min, 10.220 sec
 *  cpu-time:     0 d,  0 h,  0 min,  9.757 sec
 * ratio c/w:     0.955 speedup
 SCF:
 * wall-time:     0 d,  0 h,  0 min,  0.405 sec
 *  cpu-time:     0 d,  0 h,  0 min,  0.321 sec
 * ratio c/w:     0.792 speedup
 ANC optimizer:
 * wall-time:     0 d,  0 h,  0 min,  9.743 sec
 *  cpu-time:     0 d,  0 h,  0 min,  9.415 sec
 * ratio c/w:     0.966 speedup

