      -----------------------------------------------------------      
     |                   =====================                   |     
     |                           x T B                           |     
     |                   =====================                   |     
     |                         S. Grimme                         |     
     |          Mulliken Center for Theoretical Chemistry        |     
     |                    University of Bonn                     |     
      -----------------------------------------------------------      

   * xtb version 6.7.1 (unknown) compiled by 'root@buildkitsandbox' on 2026-08-28

   xtb is free software: you can redistribute it and/or modify it under
   the terms of the GNU Lesser General Public License as published by
   the Free Software Foundation, either version 3 of the License, or
   (at your option) any later version.
   
   xtb is distributed in the hope that it will be useful,
   but WITHOUT ANY WARRANTY; without even the implied warranty of
   MERCHANTABILITY or FITNESS FOR A PARTICULAR PURPOSE.  See the
   GNU Lesser General Public License for more details.
   
   Cite this work as:
   * C. Bannwarth, E. Caldeweyher, S. Ehlert, A. Hansen, P. Pracht,
     J. Seibert, S. Spicher, S. Grimme, WIREs Comput. Mol. Sci., 2020, 11,
     e01493. DOI: 10.1002/wcms.1493
   
   for GFN2-xTB:
   * C. Bannwarth, S. Ehlert and S. Grimme., J. Chem. Theory Comput., 2019,
     15, 1652-1671. DOI: 10.1021/acs.jctc.8b01176
   for GFN1-xTB:
   * S. Grimme, C. Bannwarth, P. Shushkov, J. Chem. Theory Comput., 2017,
     13, 1989-2009. DOI: 10.1021/acs.jctc.7b00118
   for GFN0-xTB:
   * P. Pracht, E. Caldeweyher, S. Ehlert, S. Grimme, ChemRxiv, 2019, preprint.
     DOI: 10.26434/chemrxiv.8326202.v1
   for GFN-FF:
   * S. Spicher and S. Grimme, Angew. Chem. Int. Ed., 2020, 59, 15665-15673.
     DOI: 10.1002/anie.202004239
   
   for ALPB and GBSA implicit solvation:
   * S. Ehlert, M. Stahn, S. Spicher, S. Grimme, J. Chem. Theory Comput.,
     2021, 17, 4250-4261. DOI: 10.1021/acs.jctc.1c00471
   
   for ddCOSMO and CPCM-X implicit solvation:
   * M. Stahn, S. Ehlert, S. Grimme, J. Phys. Chem. A,
     2023, XX, XXXX-XXXX. DOI: 10.1021/acs.jpca.3c04382
   
   for DFT-D4:
   * E. Caldeweyher, C. Bannwarth and S. Grimme, J. Chem. Phys., 2017,
     147, 034112. DOI: 10.1063/1.4993215
   * E. Caldeweyher, S. Ehlert, A. Hansen, H. Neugebauer, S. Spicher,
     C. Bannwarth and S. Grimme, J. Chem. Phys., 2019, 150, 154122.
     DOI: 10.1063/1.5090222
   * E. Caldeweyher, J.-M. Mewes, S. Ehlert and S. Grimme, Phys. Chem. Chem. Phys.
     2020, 22, 8499-8512. DOI: 10.1039/D0CP00502A
   
   for sTDA-xTB:
   * S. Grimme and C. Bannwarth, J. Chem. Phys., 2016, 145, 054103.
     DOI: 10.1063/1.4959605
   
   in the mass-spec context:
   * V. Asgeirsson, C. Bauer and S. Grimme, Chem. Sci., 2017, 8, 4879.
     DOI: 10.1039/c7sc00601b
   * J. Koopman and S. Grimme, ACS Omega 2019, 4, 12, 15120-15133.
     DOI: 10.1021/acsomega.9b02011
   
   for metadynamics refer to:
   * S. Grimme, J. Chem. Theory Comput., 2019, 155, 2847-2862
     DOI: 10.1021/acs.jctc.9b00143
   
   for SPH calculations refer to:
   * S. Spicher and S. Grimme, J. Chem. Theory Comput., 2021, 17, 1701-1714
     DOI: 10.1021/acs.jctc.0c01306
   
   for ONIOM refer to:
   * C. Plett, A. Katbashev, S. Ehlert, S. Grimme, M. Bursch,
     Phys. Chem. Chem. Phys., 2023, 25, 17860-17868. DOI: 10.1039/D3CP02178E
   
   for DIPRO refer to:
   * J. Kohn, N. Gildemeister, S. Grimme, D. Fazzi, A. Hansen,
     J. Chem. Phys. 159, 144106 (2023). DOI: 10.1063/5.0167484
   
   for PTB refer to:
   * S. Grimme, M. Mueller, A. Hansen, J. Chem. Phys., 2023, 158, 124111.
     DOI: 10.1063/5.0137838
   
   with help from (in alphabetical order)
   P. Atkinson, C. Bannwarth, F. Bohle, G. Brandenburg, E. Caldeweyher,
   M. Checinski, S. Dohm, S. Ehlert, S. Ehrlich, M. Friede, T. Froitzheim,
   I. Gerasimov, C. Hölzer, A. Katbashev, J. Kohn, J. Koopman, C. Lavigne,
   S. Lehtola, F. März, M. Müller, F. Musil, H. Neugebauer, J. Pisarek,
   C. Plett, P. Pracht, F. Pultar, J. Seibert, P. Shushkov, S. Spicher,
   M. Stahn, M. Steiner, T. Strunk, J. Stückrath, T. Rose, and J. Unsleber
   
 * started run on 2026/08/28 at 19:09:51.732     
   ID    Z sym.   atoms
    1    6 C      1-4, 7-9, 11, 14-20, 22, 23, 28, 29, 31-33
    2    7 N      5, 6, 10, 13, 27, 30
    3    8 O      12, 21, 25, 26
    4   16 S      24
    5    1 H      34-63

           -------------------------------------------------
          |                Calculation Setup                |
           -------------------------------------------------

          program call               : xtb in.xyz --gfn 2 --grad --norestart
          hostname                   : 756d39058c4f
          coordinate file            : in.xyz
          random seed                :            1618230304


           -------------------------------------------------
          |                 G F N 2 - x T B                 |
           -------------------------------------------------

        Reference                      10.1021/acs.jctc.8b01176
      * Hamiltonian:
        H0-scaling (s, p, d)           1.850000    2.230000    2.230000
        zeta-weighting                 0.500000
      * Dispersion:
        s8                             2.700000
        a1                             0.520000
        a2                             5.000000
        s9                             5.000000
      * Repulsion:
        kExp                           1.500000    1.000000
        rExp                           1.000000
      * Coulomb:
        alpha                          2.000000
        third order                    shell-resolved
        anisotropic                    true
        a3                             3.000000
        a5                             4.000000
        cn-shift                       1.200000
        cn-exp                         4.000000
        max-rad                        5.000000


          ...................................................
          :                      SETUP                      :
          :.................................................:
          :  # basis functions                 168          :
          :  # atomic orbitals                 167          :
          :  # shells                           97          :
          :  # electrons                       178          :
          :  max. iterations                   250          :
          :  Hamiltonian                  GFN2-xTB          :
          :  restarted?                      false          :
          :  GBSA solvation                  false          :
          :  PC potential                    false          :
          :  electronic temp.          300.0000000     K    :
          :  accuracy                    1.0000000          :
          :  -> integral cutoff          0.2500000E+02      :
          :  -> integral neglect         0.1000000E-07      :
          :  -> SCF convergence          0.1000000E-05 Eh   :
          :  -> wf. convergence          0.1000000E-03 e    :
          :  Broyden damping             0.4000000          :
          :  net charge                          0          :
          :  unpaired electrons                  0          :
          ...................................................

 iter      E             dE          RMSdq      gap      omega  full diag
   1   -100.4419583 -0.100442E+03  0.430E+00    2.39       0.0  T
   2   -100.6158611 -0.173903E+00  0.271E+00    2.08       1.0  T
   3   -100.6016188  0.142423E-01  0.157E+00    2.09       1.0  T
   4   -100.6371909 -0.355721E-01  0.801E-01    1.80       1.0  T
   5   -100.6726390 -0.354481E-01  0.212E-01    1.78       1.0  T
   6   -100.6734672 -0.828179E-03  0.120E-01    1.74       1.0  T
   7   -100.6737706 -0.303401E-03  0.634E-02    1.79       1.0  T
   8   -100.6738131 -0.425099E-04  0.318E-02    1.80       1.0  T
   9   -100.6738313 -0.181287E-04  0.147E-02    1.81       1.0  T
  10   -100.6738351 -0.385695E-05  0.585E-03    1.80       2.2  T
  11   -100.6738355 -0.438406E-06  0.296E-03    1.80       4.3  T
  12   -100.6738356 -0.432328E-07  0.143E-03    1.80       8.8  T
  13   -100.6738357 -0.652766E-07  0.363E-04    1.80      34.7  T
  14   -100.6738357 -0.544588E-09  0.165E-04    1.80      76.3  T

   *** convergence criteria satisfied after 14 iterations ***

         #    Occupation            Energy/Eh            Energy/eV
      -------------------------------------------------------------
         1        2.0000           -0.7831186             -21.3097
       ...           ...                  ...                  ...
        83        2.0000           -0.4260206             -11.5926
        84        2.0000           -0.4208129             -11.4509
        85        2.0000           -0.4082602             -11.1093
        86        2.0000           -0.4002372             -10.8910
        87        2.0000           -0.3837914             -10.4435
        88        2.0000           -0.3776696             -10.2769
        89        2.0000           -0.3730080             -10.1501 (HOMO)
        90                         -0.3068402              -8.3495 (LUMO)
        91                         -0.2828326              -7.6963
        92                         -0.2776627              -7.5556
        93                         -0.2162811              -5.8853
        94                         -0.2116720              -5.7599
       ...                                ...                  ...
       167                          1.1377181              30.9589
      -------------------------------------------------------------
                  HL-Gap            0.0661678 Eh            1.8005 eV
             Fermi-level           -0.3399241 Eh           -9.2498 eV

 SCC (total)                   0 d,  0 h,  0 min,  0.326 sec
 SCC setup                      ...        0 min,  0.000 sec (  0.070%)
 Dispersion                     ...        0 min,  0.001 sec (  0.160%)
 classical contributions        ...        0 min,  0.000 sec (  0.030%)
 integral evaluation            ...        0 min,  0.014 sec (  4.326%)
 iterations                     ...        0 min,  0.262 sec ( 80.466%)
 molecular gradient             ...        0 min,  0.047 sec ( 14.331%)
 printout                       ...        0 min,  0.002 sec (  0.609%)

         :::::::::::::::::::::::::::::::::::::::::::::::::::::
         ::                     SUMMARY                     ::
         :::::::::::::::::::::::::::::::::::::::::::::::::::::
         :: total energy             -99.484057228724 Eh    ::
         :: gradient norm              0.136483864312 Eh/a0 ::
         :: HOMO-LUMO gap              1.800517645756 eV    ::
         ::.................................................::
         :: SCC energy              -100.672363600005 Eh    ::
         :: -> isotropic ES            0.143803828640 Eh    ::
         :: -> anisotropic ES          0.004703199800 Eh    ::
         :: -> anisotropic XC          0.046788325416 Eh    ::
         :: -> dispersion             -0.073273437788 Eh    ::
         :: repulsion energy           1.188306371281 Eh    ::
         :: add. restraining           0.000000000000 Eh    ::
         :: total charge              -0.000000000000 e     ::
         :::::::::::::::::::::::::::::::::::::::::::::::::::::

           -------------------------------------------------
          |                Property Printout                |
           -------------------------------------------------

    * Orbital Energies and Occupations

         #    Occupation            Energy/Eh            Energy/eV
      -------------------------------------------------------------
         1        2.0000           -0.7831186             -21.3097
       ...           ...                  ...                  ...
        77        2.0000           -0.4472857             -12.1713
        78        2.0000           -0.4465882             -12.1523
        79        2.0000           -0.4450898             -12.1115
        80        2.0000           -0.4363475             -11.8736
        81        2.0000           -0.4299288             -11.6990
        82        2.0000           -0.4276543             -11.6371
        83        2.0000           -0.4260206             -11.5926
        84        2.0000           -0.4208129             -11.4509
        85        2.0000           -0.4082602             -11.1093
        86        2.0000           -0.4002372             -10.8910
        87        2.0000           -0.3837914             -10.4435
        88        2.0000           -0.3776696             -10.2769
        89        2.0000           -0.3730080             -10.1501 (HOMO)
        90                         -0.3068402              -8.3495 (LUMO)
        91                         -0.2828326              -7.6963
        92                         -0.2776627              -7.5556
        93                         -0.2162811              -5.8853
        94                         -0.2116720              -5.7599
        95                         -0.1669893              -4.5440
        96                         -0.1525738              -4.1517
        97                         -0.1244638              -3.3868
        98                         -0.0908553              -2.4723
        99                         -0.0710269              -1.9327
       100                         -0.0702607              -1.9119
       ...                                ...                  ...
       167                          1.1377181              30.9589
      -------------------------------------------------------------
                  HL-Gap            0.0661678 Eh            1.8005 eV
             Fermi-level           -0.3399241 Eh           -9.2498 eV

     #   Z          covCN         q      C6AA      α(0)
     1   6          3.751    -0.103    22.534     6.770
     2   6          3.804    -0.046    21.393     6.585
     3   6          3.806    -0.063    21.699     6.631
     4   6          3.028     0.065    26.511     8.446
     5   7          1.934    -0.192    25.970     7.556
     6   7          2.943     0.023    20.847     6.781
     7   6          3.686    -0.054    21.746     6.676
     8   6          2.964     0.012    27.752     8.641
     9   6          3.069     0.083    26.086     8.375
    10   7          1.828    -0.259    27.583     7.782
    11   6          2.786     0.331    21.383     7.574
    12   8          0.860    -0.454    22.784     6.400
    13   7          2.705    -0.145    24.134     7.296
    14   6          2.928     0.078    26.256     8.403
    15   6          2.969    -0.020    28.509     8.758
    16   6          2.952    -0.035    28.872     8.813
    17   6          2.957    -0.095    30.378     9.040
    18   6          2.944    -0.028    28.694     8.786
    19   6          2.911    -0.045    29.121     8.849
    20   6          2.882     0.146    24.826     8.168
    21   8          1.702    -0.302    19.025     5.889
    22   6          3.710     0.090    19.222     6.266
    23   6          3.748    -0.113    22.723     6.799
    24  16          3.781     1.079   104.409    17.198
    25   8          0.860    -0.550    24.922     6.693
    26   8          0.860    -0.551    24.942     6.696
    27   7          2.726    -0.279    27.194     7.745
    28   6          3.786     0.007    20.467     6.444
    29   6          3.755     0.007    20.521     6.459
    30   7          2.720    -0.177    24.834     7.401
    31   6          3.704    -0.037    21.390     6.612
    32   6          3.755     0.006    20.523     6.460
    33   6          3.787     0.006    20.489     6.447
    34   1          0.924     0.037     2.487     2.466
    35   1          0.924     0.042     2.429     2.437
    36   1          0.924     0.036     2.500     2.473
    37   1          0.924     0.041     2.439     2.442
    38   1          0.924     0.035     2.518     2.482
    39   1          0.924     0.054     2.267     2.355
    40   1          0.924     0.064     2.156     2.296
    41   1          0.924     0.082     1.956     2.187
    42   1          0.924     0.049     2.337     2.391
    43   1          0.924     0.064     2.147     2.292
    44   1          0.860     0.204     1.084     1.631
    45   1          0.925     0.070     2.088     2.259
    46   1          0.925     0.072     2.064     2.247
    47   1          0.925     0.076     2.022     2.224
    48   1          0.923     0.028     2.610     2.527
    49   1          0.924     0.033     2.539     2.492
    50   1          0.924     0.055     2.257     2.349
    51   1          0.924     0.053     2.279     2.361
    52   1          0.924     0.059     2.209     2.324
    53   1          0.924     0.029     2.605     2.524
    54   1          0.924     0.062     2.175     2.306
    55   1          0.924     0.049     2.332     2.388
    56   1          0.923     0.032     2.556     2.500
    57   1          0.924     0.045     2.381     2.413
    58   1          0.924     0.021     2.719     2.579
    59   1          0.924     0.045     2.384     2.415
    60   1          0.924     0.049     2.338     2.391
    61   1          0.923     0.032     2.565     2.505
    62   1          0.924     0.031     2.566     2.505
    63   1          0.924     0.064     2.155     2.295

 Mol. C6AA /au·bohr⁶  :      44993.293893
 Mol. C8AA /au·bohr⁸  :    1068758.769038
 Mol. α(0) /au        :        324.498307


Wiberg/Mayer (AO) data.
largest (>0.10) Wiberg bond orders for each atom

 ---------------------------------------------------------------------------
     #   Z sym  total        # sym  WBO       # sym  WBO       # sym  WBO
 ---------------------------------------------------------------------------
     1   6      3.995 --     2      1.019    36      0.987    35      0.987
                            34      0.986
     2   6      3.993 --     1      1.019     3      0.982    38      0.978
                            37      0.977
     3   6      3.992 --     4      1.021     2      0.982    39      0.969
                            40      0.965
     4   6      3.971 --     5      1.646     9      1.090     3      1.021
                             6      0.101
     5   7      3.000 --     4      1.646     6      1.115
     6   7      3.536 --     8      1.162     5      1.115     7      0.999
                             4      0.101
     7   6      3.966 --     6      0.999    42      0.979    41      0.977
                            43      0.972
     8   6      3.970 --    14      1.462     6      1.162     9      1.089
     9   6      3.971 --    10      1.558     4      1.090     8      1.089
    10   7      3.077 --     9      1.558    11      1.150    14      0.107
    11   6      3.951 --    12      1.631    10      1.150    13      1.082
    12   8      1.962 --    11      1.631    13      0.146
    13   7      3.548 --    14      1.202    11      1.082    44      0.926
                            12      0.146
    14   6      3.969 --     8      1.462    13      1.202    15      1.012
                            10      0.107
    15   6      3.986 --    16      1.404    20      1.340    14      1.012
                            18      0.101
    16   6      3.983 --    17      1.416    15      1.404    45      0.963
                            19      0.107
    17   6      3.969 --    16      1.416    18      1.414    24      0.753
    18   6      3.982 --    19      1.444    17      1.414    46      0.964
                            15      0.101
    19   6      3.985 --    18      1.444    20      1.386    47      0.964
                            16      0.107
    20   6      3.945 --    19      1.386    15      1.340    21      1.034
    21   8      2.118 --    20      1.034    22      0.934
    22   6      3.940 --    23      1.016    48      0.975    49      0.971
                            21      0.934
    23   6      3.990 --    22      1.016    50      0.985    52      0.985
                            51      0.982
    24  16      5.023 --    26      1.626    25      1.626    27      0.946
                            17      0.753
    25   8      1.933 --    24      1.626    26      0.113
    26   8      1.934 --    24      1.626    25      0.113
    27   7      3.207 --    33      0.981    28      0.980    24      0.946
Note: The following floating-point exceptions are signalling: IEEE_UNDERFLOW_FLAG
normal termination of xtb
    28   6      3.971 --    29      0.999    27      0.980    54      0.972
                            53      0.971
    29   6      3.986 --    30      1.000    28      0.999    55      0.971
                            56      0.966
    30   7      3.101 --    31      1.013    29      1.000    32      1.000
    31   6      3.983 --    30      1.013    57      0.982    59      0.982
                            58      0.975
    32   6      3.986 --    30      1.000    33      0.999    60      0.971
                            61      0.966
    33   6      3.970 --    32      0.999    27      0.981    63      0.972
                            62      0.971
    34   1      0.997 --     1      0.986
    35   1      0.998 --     1      0.987
    36   1      0.999 --     1      0.987
    37   1      0.998 --     2      0.977
    38   1      0.999 --     2      0.978
    39   1      0.996 --     3      0.969
    40   1      0.996 --     3      0.965
    41   1      0.992 --     7      0.977
    42   1      0.996 --     7      0.979
    43   1      0.994 --     7      0.972
    44   1      0.958 --    13      0.926
    45   1      0.995 --    16      0.963
    46   1      0.994 --    18      0.964
    47   1      0.992 --    19      0.964
    48   1      0.999 --    22      0.975
    49   1      0.999 --    22      0.971
    50   1      0.997 --    23      0.985
    51   1      0.997 --    23      0.982
    52   1      0.996 --    23      0.985
    53   1      0.999 --    28      0.971
    54   1      0.996 --    28      0.972
    55   1      0.997 --    29      0.971
    56   1      0.999 --    29      0.966
    57   1      0.998 --    31      0.982
    58   1      1.000 --    31      0.975
    59   1      0.998 --    31      0.982
    60   1      0.997 --    32      0.971
    61   1      0.999 --    32      0.966
    62   1      0.999 --    33      0.971
    63   1      0.996 --    33      0.972
 ---------------------------------------------------------------------------

Topologies differ in total number of bonds
Writing topology from bond orders to xtbtopo.mol

molecular dipole:
                 x           y           z       tot (Debye)
 q only:        0.529       3.713      -0.248
   full:        1.341       3.385      -0.243       9.274
molecular quadrupole (traceless):
                xx          xy          yy          xz          yz          zz
 q only:       18.301      93.341     -52.073      -5.669       2.054      33.772
  q+dip:       41.276      79.553     -66.450      -5.442       6.178      25.174
   full:       39.236      79.674     -67.176      -6.306       4.830      27.941


           -------------------------------------------------
          | TOTAL ENERGY              -99.484057228724 Eh   |
          | GRADIENT NORM               0.136483864312 Eh/α |
          | HOMO-LUMO GAP               1.800517645756 eV   |
           -------------------------------------------------

------------------------------------------------------------------------
 * finished run on 2026/08/28 at 19:09:52.076     
------------------------------------------------------------------------
 total:
 * wall-time:     0 d,  0 h,  0 min,  0.344 sec
 *  cpu-time:     0 d,  0 h,  0 min,  0.325 sec
 * ratio c/w:     0.943 speedup
 SCF:
 * wall-time:     0 d,  0 h,  0 min,  0.326 sec
 *  cpu-time:     0 d,  0 h,  0 min,  0.307 sec
 * ratio c/w:     0.943 speedup

