      -----------------------------------------------------------      
     |                   =====================                   |     
     |                           x T B                           |     
     |                   =====================                   |     
     |                         S. Grimme                         |     
     |          Mulliken Center for Theoretical Chemistry        |     
     |                    University of Bonn                     |     
      -----------------------------------------------------------      

   * xtb version 6.7.1 (unknown) compiled by 'root@buildkitsandbox' on 2026-08-28

   xtb is free software: you can redistribute it and/or modify it under
   the terms of the GNU Lesser General Public License as published by
   the Free Software Foundation, either version 3 of the License, or
   (at your option) any later version.
   
   xtb is distributed in the hope that it will be useful,
   but WITHOUT ANY WARRANTY; without even the implied warranty of
   MERCHANTABILITY or FITNESS FOR A PARTICULAR PURPOSE.  See the
   GNU Lesser General Public License for more details.
   
   Cite this work as:
   * C. Bannwarth, E. Caldeweyher, S. Ehlert, A. Hansen, P. Pracht,
     J. Seibert, S. Spicher, S. Grimme, WIREs Comput. Mol. Sci., 2020, 11,
     e01493. DOI: 10.1002/wcms.1493
   
   for GFN2-xTB:
   * C. Bannwarth, S. Ehlert and S. Grimme., J. Chem. Theory Comput., 2019,
     15, 1652-1671. DOI: 10.1021/acs.jctc.8b01176
   for GFN1-xTB:
   * S. Grimme, C. Bannwarth, P. Shushkov, J. Chem. Theory Comput., 2017,
     13, 1989-2009. DOI: 10.1021/acs.jctc.7b00118
   for GFN0-xTB:
   * P. Pracht, E. Caldeweyher, S. Ehlert, S. Grimme, ChemRxiv, 2019, preprint.
     DOI: 10.26434/chemrxiv.8326202.v1
   for GFN-FF:
   * S. Spicher and S. Grimme, Angew. Chem. Int. Ed., 2020, 59, 15665-15673.
     DOI: 10.1002/anie.202004239
   
   for ALPB and GBSA implicit solvation:
   * S. Ehlert, M. Stahn, S. Spicher, S. Grimme, J. Chem. Theory Comput.,
     2021, 17, 4250-4261. DOI: 10.1021/acs.jctc.1c00471
   
   for ddCOSMO and CPCM-X implicit solvation:
   * M. Stahn, S. Ehlert, S. Grimme, J. Phys. Chem. A,
     2023, XX, XXXX-XXXX. DOI: 10.1021/acs.jpca.3c04382
   
   for DFT-D4:
   * E. Caldeweyher, C. Bannwarth and S. Grimme, J. Chem. Phys., 2017,
     147, 034112. DOI: 10.1063/1.4993215
   * E. Caldeweyher, S. Ehlert, A. Hansen, H. Neugebauer, S. Spicher,
     C. Bannwarth and S. Grimme, J. Chem. Phys., 2019, 150, 154122.
     DOI: 10.1063/1.5090222
   * E. Caldeweyher, J.-M. Mewes, S. Ehlert and S. Grimme, Phys. Chem. Chem. Phys.
     2020, 22, 8499-8512. DOI: 10.1039/D0CP00502A
   
   for sTDA-xTB:
   * S. Grimme and C. Bannwarth, J. Chem. Phys., 2016, 145, 054103.
     DOI: 10.1063/1.4959605
   
   in the mass-spec context:
   * V. Asgeirsson, C. Bauer and S. Grimme, Chem. Sci., 2017, 8, 4879.
     DOI: 10.1039/c7sc00601b
   * J. Koopman and S. Grimme, ACS Omega 2019, 4, 12, 15120-15133.
     DOI: 10.1021/acsomega.9b02011
   
   for metadynamics refer to:
   * S. Grimme, J. Chem. Theory Comput., 2019, 155, 2847-2862
     DOI: 10.1021/acs.jctc.9b00143
   
   for SPH calculations refer to:
   * S. Spicher and S. Grimme, J. Chem. Theory Comput., 2021, 17, 1701-1714
     DOI: 10.1021/acs.jctc.0c01306
   
   for ONIOM refer to:
   * C. Plett, A. Katbashev, S. Ehlert, S. Grimme, M. Bursch,
     Phys. Chem. Chem. Phys., 2023, 25, 17860-17868. DOI: 10.1039/D3CP02178E
   
   for DIPRO refer to:
   * J. Kohn, N. Gildemeister, S. Grimme, D. Fazzi, A. Hansen,
     J. Chem. Phys. 159, 144106 (2023). DOI: 10.1063/5.0167484
   
   for PTB refer to:
   * S. Grimme, M. Mueller, A. Hansen, J. Chem. Phys., 2023, 158, 124111.
     DOI: 10.1063/5.0137838
   
   with help from (in alphabetical order)
   P. Atkinson, C. Bannwarth, F. Bohle, G. Brandenburg, E. Caldeweyher,
   M. Checinski, S. Dohm, S. Ehlert, S. Ehrlich, M. Friede, T. Froitzheim,
   I. Gerasimov, C. Hölzer, A. Katbashev, J. Kohn, J. Koopman, C. Lavigne,
   S. Lehtola, F. März, M. Müller, F. Musil, H. Neugebauer, J. Pisarek,
   C. Plett, P. Pracht, F. Pultar, J. Seibert, P. Shushkov, S. Spicher,
   M. Stahn, M. Steiner, T. Strunk, J. Stückrath, T. Rose, and J. Unsleber
   
 * started run on 2026/08/28 at 19:09:46.752     
   ID    Z sym.   atoms
    1    8 O      1, 4, 7, 8, 10, 13, 15, 17, 19, 21, 23
    2    6 C      2, 3, 5, 6, 9, 11, 12, 14, 16, 18, 20, 22
    3    1 H      24-45

           -------------------------------------------------
          |                Calculation Setup                |
           -------------------------------------------------

          program call               : xtb in.xyz --gfn 2 --grad --norestart
          hostname                   : 756d39058c4f
          coordinate file            : in.xyz
          random seed                :            1341344455


           -------------------------------------------------
          |                 G F N 2 - x T B                 |
           -------------------------------------------------

        Reference                      10.1021/acs.jctc.8b01176
      * Hamiltonian:
        H0-scaling (s, p, d)           1.850000    2.230000    2.230000
        zeta-weighting                 0.500000
      * Dispersion:
        s8                             2.700000
        a1                             0.520000
        a2                             5.000000
        s9                             5.000000
      * Repulsion:
        kExp                           1.500000    1.000000
        rExp                           1.000000
      * Coulomb:
        alpha                          2.000000
        third order                    shell-resolved
        anisotropic                    true
        a3                             3.000000
        a5                             4.000000
        cn-shift                       1.200000
        cn-exp                         4.000000
        max-rad                        5.000000


          ...................................................
          :                      SETUP                      :
          :.................................................:
          :  # basis functions                 114          :
          :  # atomic orbitals                 114          :
          :  # shells                           68          :
          :  # electrons                       136          :
          :  max. iterations                   250          :
          :  Hamiltonian                  GFN2-xTB          :
          :  restarted?                      false          :
          :  GBSA solvation                  false          :
          :  PC potential                    false          :
          :  electronic temp.          300.0000000     K    :
          :  accuracy                    1.0000000          :
          :  -> integral cutoff          0.2500000E+02      :
          :  -> integral neglect         0.1000000E-07      :
          :  -> SCF convergence          0.1000000E-05 Eh   :
          :  -> wf. convergence          0.1000000E-03 e    :
          :  Broyden damping             0.4000000          :
          :  net charge                          0          :
          :  unpaired electrons                  0          :
          ...................................................

 iter      E             dE          RMSdq      gap      omega  full diag
   1    -82.1098027 -0.821098E+02  0.450E+00    9.28       0.0  T
   2    -82.1861436 -0.763408E-01  0.241E+00    8.84       1.0  T
   3    -82.1880510 -0.190739E-02  0.767E-01    8.81       1.0  T
   4    -82.1900211 -0.197012E-02  0.156E-01    8.67       1.0  T
   5    -82.1902985 -0.277469E-03  0.742E-02    8.72       1.0  T
   6    -82.1903263 -0.277899E-04  0.204E-02    8.73       1.0  T
   7    -82.1903287 -0.238731E-05  0.839E-03    8.73       1.8  T
   8    -82.1903294 -0.674495E-06  0.221E-03    8.73       6.8  T
   9    -82.1903294 -0.267421E-07  0.860E-04    8.73      17.3  T
  10    -82.1903294 -0.847793E-08  0.246E-04    8.73      60.6  T

   *** convergence criteria satisfied after 10 iterations ***

         #    Occupation            Energy/Eh            Energy/eV
      -------------------------------------------------------------
         1        2.0000           -0.7359397             -20.0259
       ...           ...                  ...                  ...
        62        2.0000           -0.4319357             -11.7536
        63        2.0000           -0.4278182             -11.6415
        64        2.0000           -0.4232385             -11.5169
        65        2.0000           -0.4204899             -11.4421
        66        2.0000           -0.4127745             -11.2322
        67        2.0000           -0.4046284             -11.0105
        68        2.0000           -0.4013145             -10.9203 (HOMO)
        69                         -0.0804214              -2.1884 (LUMO)
        70                         -0.0622428              -1.6937
        71                         -0.0402885              -1.0963
        72                         -0.0257254              -0.7000
        73                         -0.0070484              -0.1918
       ...                                ...                  ...
       114                          0.2810790               7.6485
      -------------------------------------------------------------
                  HL-Gap            0.3208931 Eh            8.7319 eV
             Fermi-level           -0.2408680 Eh           -6.5544 eV

 SCC (total)                   0 d,  0 h,  0 min,  0.140 sec
 SCC setup                      ...        0 min,  0.000 sec (  0.269%)
 Dispersion                     ...        0 min,  0.001 sec (  0.383%)
 classical contributions        ...        0 min,  0.000 sec (  0.133%)
 integral evaluation            ...        0 min,  0.008 sec (  5.424%)
 iterations                     ...        0 min,  0.079 sec ( 56.783%)
 molecular gradient             ...        0 min,  0.049 sec ( 34.815%)
 printout                       ...        0 min,  0.003 sec (  2.178%)

         :::::::::::::::::::::::::::::::::::::::::::::::::::::
         ::                     SUMMARY                     ::
         :::::::::::::::::::::::::::::::::::::::::::::::::::::
         :: total energy             -81.634552212437 Eh    ::
         :: gradient norm              0.087570099950 Eh/a0 ::
         :: HOMO-LUMO gap              8.731944999284 eV    ::
         ::.................................................::
         :: SCC energy               -82.188935479103 Eh    ::
         :: -> isotropic ES            0.252626460302 Eh    ::
         :: -> anisotropic ES         -0.008731208243 Eh    ::
         :: -> anisotropic XC         -0.015730209070 Eh    ::
         :: -> dispersion             -0.044600888702 Eh    ::
         :: repulsion energy           0.554383266666 Eh    ::
         :: add. restraining           0.000000000000 Eh    ::
         :: total charge               0.000000000000 e     ::
         :::::::::::::::::::::::::::::::::::::::::::::::::::::

           -------------------------------------------------
          |                Property Printout                |
           -------------------------------------------------

    * Orbital Energies and Occupations

         #    Occupation            Energy/Eh            Energy/eV
      -------------------------------------------------------------
         1        2.0000           -0.7359397             -20.0259
       ...           ...                  ...                  ...
        56        2.0000           -0.4611865             -12.5495
        57        2.0000           -0.4519638             -12.2986
        58        2.0000           -0.4511000             -12.2751
        59        2.0000           -0.4437436             -12.0749
        60        2.0000           -0.4417938             -12.0218
        61        2.0000           -0.4372487             -11.8981
        62        2.0000           -0.4319357             -11.7536
        63        2.0000           -0.4278182             -11.6415
        64        2.0000           -0.4232385             -11.5169
        65        2.0000           -0.4204899             -11.4421
        66        2.0000           -0.4127745             -11.2322
        67        2.0000           -0.4046284             -11.0105
        68        2.0000           -0.4013145             -10.9203 (HOMO)
        69                         -0.0804214              -2.1884 (LUMO)
        70                         -0.0622428              -1.6937
        71                         -0.0402885              -1.0963
        72                         -0.0257254              -0.7000
        73                         -0.0070484              -0.1918
        74                          0.0015330               0.0417
        75                          0.0108652               0.2957
        76                          0.0131014               0.3565
        77                          0.0217969               0.5931
        78                          0.0294386               0.8011
        79                          0.0417303               1.1355
       ...                                ...                  ...
       114                          0.2810790               7.6485
      -------------------------------------------------------------
                  HL-Gap            0.3208931 Eh            8.7319 eV
             Fermi-level           -0.2408680 Eh           -6.5544 eV

     #   Z          covCN         q      C6AA      α(0)
     1   8          1.653    -0.439    21.626     6.278
     2   6          3.673     0.074    19.567     6.340
     3   6          3.798     0.106    18.839     6.180
     4   8          1.693    -0.337    19.653     5.985
     5   6          3.708     0.253    16.835     5.865
     6   6          3.672     0.063    19.756     6.370
     7   8          1.652    -0.450    21.838     6.308
     8   8          1.696    -0.332    19.570     5.973
     9   6          3.626     0.231    17.371     6.005
    10   8          1.695    -0.336    19.637     5.983
    11   6          3.743     0.093    19.115     6.237
    12   6          3.673     0.069    19.649     6.353
    13   8          1.652    -0.440    21.634     6.279
    14   6          3.726     0.096    19.092     6.239
    15   8          1.652    -0.445    21.749     6.296
    16   6          3.728     0.091    19.167     6.250
    17   8          1.650    -0.460    22.044     6.338
    18   6          3.723     0.081    19.339     6.280
    19   8          1.650    -0.447    21.787     6.301
    20   6          3.769     0.095    19.039     6.218
    21   8          1.652    -0.442    21.688     6.287
    22   6          3.750     0.105    18.918     6.203
    23   8          1.652    -0.444    21.716     6.291
    24   1          0.804     0.301     0.718     1.331
    25   1          0.924     0.046     2.371     2.408
    26   1          0.924     0.049     2.335     2.390
    27   1          0.923     0.048     2.345     2.395
    28   1          0.924     0.042     2.422     2.434
    29   1          0.924     0.045     2.378     2.412
    30   1          0.804     0.308     0.697     1.312
    31   1          0.924     0.048     2.350     2.397
    32   1          0.924     0.073     2.054     2.241
    33   1          0.924     0.042     2.420     2.433
    34   1          0.924     0.075     2.031     2.229
    35   1          0.804     0.301     0.719     1.332
    36   1          0.924     0.051     2.311     2.377
    37   1          0.803     0.316     0.674     1.290
    38   1          0.924     0.044     2.396     2.421
    39   1          0.803     0.309     0.695     1.309
    40   1          0.924     0.064     2.155     2.296
    41   1          0.803     0.312     0.686     1.301
    42   1          0.923     0.039     2.466     2.456
    43   1          0.803     0.319     0.667     1.283
    44   1          0.924     0.067     2.114     2.274
    45   1          0.803     0.315     0.677     1.293

 Mol. C6AA /au·bohr⁶  :      16971.687235
 Mol. C8AA /au·bohr⁸  :     363999.762685
 Mol. α(0) /au        :        186.470217


Wiberg/Mayer (AO) data.
largest (>0.10) Wiberg bond orders for each atom

 ---------------------------------------------------------------------------
     #   Z sym  total        # sym  WBO       # sym  WBO       # sym  WBO
 ---------------------------------------------------------------------------
     1   8      1.947 --     2      0.996    24      0.896
     2   6      3.962 --     1      0.996     3      0.993    25      0.970
                            26      0.969
     3   6      3.947 --     2      0.993    22      0.977    27      0.959
                             4      0.951
     4   8      2.065 --     5      0.966     3      0.951
     5   6      3.926 --     6      0.967     4      0.966     8      0.958
                            20      0.945
     6   6      3.957 --     7      0.994    28      0.969     5      0.967
                            29      0.966
     7   8      1.941 --     6      0.994    30      0.892
     8   8      2.105 --     9      0.960     5      0.958
     9   6      3.927 --    10      0.985     8      0.960    18      0.954
                            31      0.949
    10   8      2.080 --     9      0.985    11      0.946
    11   6      3.933 --    12      0.985    14      0.974    32      0.953
                            10      0.946
    12   6      3.960 --    13      1.002    11      0.985    33      0.970
                            34      0.969
    13   8      1.950 --    12      1.002    35      0.893
    14   6      3.963 --    15      0.993    16      0.976    11      0.974
                            36      0.958
    15   8      1.944 --    14      0.993    37      0.883
    16   6      3.959 --    17      0.981    14      0.976    18      0.974
                            38      0.959
    17   8      1.937 --    16      0.981    39      0.884
    18   6      3.959 --    19      0.993    16      0.974    40      0.960
                             9      0.954
    19   8      1.958 --    18      0.993    41      0.882
    20   6      3.963 --    21      1.001    22      0.974    42      0.957
                             5      0.945
    21   8      1.950 --    20      1.001    43      0.877
    22   6      3.960 --    23      0.995     3      0.977    20      0.974
                            44      0.956
    23   8      1.946 --    22      0.995    45      0.886
    24   1      0.909 --     1      0.896
    25   1      0.998 --     2      0.970
    26   1      0.997 --     2      0.969
    27   1      0.998 --     3      0.959
    28   1      0.998 --     6      0.969
    29   1      0.998 --     6      0.966
    30   1      0.905 --     7      0.892
    31   1      0.997 --     9      0.949
    32   1      0.995 --    11      0.953
    33   1      0.998 --    12      0.970
    34   1      0.994 --    12      0.969
    35   1      0.910 --    13      0.893
    36   1      0.997 --    14      0.958
    37   1      0.900 --    15      0.883
    38   1      0.998 --    16      0.959
    39   1      0.904 --    17      0.884
    40   1      0.995 --    18      0.960
    41   1      0.903 --    19      0.882
    42   1      0.998 --    20      0.957
    43   1      0.898 --    21      0.877
    44   1      0.995 --    22      0.956
    45   1      0.901 --    23      0.886
 ---------------------------------------------------------------------------

Topologies differ in total number of bonds
Writing topology from bond orders to xtbtopo.mol

molecular dipole:
                 x           y           z       tot (Debye)
 q only:       -1.368       0.676      -0.085
   full:       -1.974       1.051      -0.525       5.840
molecular quadrupole (traceless):
                xx          xy          yy          xz          yz          zz
 q only:      -25.827      14.954       1.112       8.761      -3.124      24.715
  q+dip:      -37.455      21.092       2.402       6.677      -2.606      35.053
   full:      -38.079      21.667       2.274       7.372      -1.687      35.806


           -------------------------------------------------
          | TOTAL ENERGY              -81.634552212437 Eh   |
          | GRADIENT NORM               0.087570099950 Eh/α |
          | HOMO-LUMO GAP               8.731944999284 eV   |
Note: The following floating-point exceptions are signalling: IEEE_UNDERFLOW_FLAG
normal termination of xtb
           -------------------------------------------------

------------------------------------------------------------------------
 * finished run on 2026/08/28 at 19:09:46.923     
------------------------------------------------------------------------
 total:
 * wall-time:     0 d,  0 h,  0 min,  0.171 sec
 *  cpu-time:     0 d,  0 h,  0 min,  0.164 sec
 * ratio c/w:     0.956 speedup
 SCF:
 * wall-time:     0 d,  0 h,  0 min,  0.140 sec
 *  cpu-time:     0 d,  0 h,  0 min,  0.138 sec
 * ratio c/w:     0.984 speedup

