      -----------------------------------------------------------      
     |                   =====================                   |     
     |                           x T B                           |     
     |                   =====================                   |     
     |                         S. Grimme                         |     
     |          Mulliken Center for Theoretical Chemistry        |     
     |                    University of Bonn                     |     
      -----------------------------------------------------------      

   * xtb version 6.7.1 (unknown) compiled by 'root@buildkitsandbox' on 2026-08-28

   xtb is free software: you can redistribute it and/or modify it under
   the terms of the GNU Lesser General Public License as published by
   the Free Software Foundation, either version 3 of the License, or
   (at your option) any later version.
   
   xtb is distributed in the hope that it will be useful,
   but WITHOUT ANY WARRANTY; without even the implied warranty of
   MERCHANTABILITY or FITNESS FOR A PARTICULAR PURPOSE.  See the
   GNU Lesser General Public License for more details.
   
   Cite this work as:
   * C. Bannwarth, E. Caldeweyher, S. Ehlert, A. Hansen, P. Pracht,
     J. Seibert, S. Spicher, S. Grimme, WIREs Comput. Mol. Sci., 2020, 11,
     e01493. DOI: 10.1002/wcms.1493
   
   for GFN2-xTB:
   * C. Bannwarth, S. Ehlert and S. Grimme., J. Chem. Theory Comput., 2019,
     15, 1652-1671. DOI: 10.1021/acs.jctc.8b01176
   for GFN1-xTB:
   * S. Grimme, C. Bannwarth, P. Shushkov, J. Chem. Theory Comput., 2017,
     13, 1989-2009. DOI: 10.1021/acs.jctc.7b00118
   for GFN0-xTB:
   * P. Pracht, E. Caldeweyher, S. Ehlert, S. Grimme, ChemRxiv, 2019, preprint.
     DOI: 10.26434/chemrxiv.8326202.v1
   for GFN-FF:
   * S. Spicher and S. Grimme, Angew. Chem. Int. Ed., 2020, 59, 15665-15673.
     DOI: 10.1002/anie.202004239
   
   for ALPB and GBSA implicit solvation:
   * S. Ehlert, M. Stahn, S. Spicher, S. Grimme, J. Chem. Theory Comput.,
     2021, 17, 4250-4261. DOI: 10.1021/acs.jctc.1c00471
   
   for ddCOSMO and CPCM-X implicit solvation:
   * M. Stahn, S. Ehlert, S. Grimme, J. Phys. Chem. A,
     2023, XX, XXXX-XXXX. DOI: 10.1021/acs.jpca.3c04382
   
   for DFT-D4:
   * E. Caldeweyher, C. Bannwarth and S. Grimme, J. Chem. Phys., 2017,
     147, 034112. DOI: 10.1063/1.4993215
   * E. Caldeweyher, S. Ehlert, A. Hansen, H. Neugebauer, S. Spicher,
     C. Bannwarth and S. Grimme, J. Chem. Phys., 2019, 150, 154122.
     DOI: 10.1063/1.5090222
   * E. Caldeweyher, J.-M. Mewes, S. Ehlert and S. Grimme, Phys. Chem. Chem. Phys.
     2020, 22, 8499-8512. DOI: 10.1039/D0CP00502A
   
   for sTDA-xTB:
   * S. Grimme and C. Bannwarth, J. Chem. Phys., 2016, 145, 054103.
     DOI: 10.1063/1.4959605
   
   in the mass-spec context:
   * V. Asgeirsson, C. Bauer and S. Grimme, Chem. Sci., 2017, 8, 4879.
     DOI: 10.1039/c7sc00601b
   * J. Koopman and S. Grimme, ACS Omega 2019, 4, 12, 15120-15133.
     DOI: 10.1021/acsomega.9b02011
   
   for metadynamics refer to:
   * S. Grimme, J. Chem. Theory Comput., 2019, 155, 2847-2862
     DOI: 10.1021/acs.jctc.9b00143
   
   for SPH calculations refer to:
   * S. Spicher and S. Grimme, J. Chem. Theory Comput., 2021, 17, 1701-1714
     DOI: 10.1021/acs.jctc.0c01306
   
   for ONIOM refer to:
   * C. Plett, A. Katbashev, S. Ehlert, S. Grimme, M. Bursch,
     Phys. Chem. Chem. Phys., 2023, 25, 17860-17868. DOI: 10.1039/D3CP02178E
   
   for DIPRO refer to:
   * J. Kohn, N. Gildemeister, S. Grimme, D. Fazzi, A. Hansen,
     J. Chem. Phys. 159, 144106 (2023). DOI: 10.1063/5.0167484
   
   for PTB refer to:
   * S. Grimme, M. Mueller, A. Hansen, J. Chem. Phys., 2023, 158, 124111.
     DOI: 10.1063/5.0137838
   
   with help from (in alphabetical order)
   P. Atkinson, C. Bannwarth, F. Bohle, G. Brandenburg, E. Caldeweyher,
   M. Checinski, S. Dohm, S. Ehlert, S. Ehrlich, M. Friede, T. Froitzheim,
   I. Gerasimov, C. Hölzer, A. Katbashev, J. Kohn, J. Koopman, C. Lavigne,
   S. Lehtola, F. März, M. Müller, F. Musil, H. Neugebauer, J. Pisarek,
   C. Plett, P. Pracht, F. Pultar, J. Seibert, P. Shushkov, S. Spicher,
   M. Stahn, M. Steiner, T. Strunk, J. Stückrath, T. Rose, and J. Unsleber
   
 * started run on 2026/08/28 at 19:10:14.200     
   ID    Z sym.   atoms
    1    8 O      1, 4, 7, 8, 10, 13, 15, 17, 19, 21, 23
    2    6 C      2, 3, 5, 6, 9, 11, 12, 14, 16, 18, 20, 22
    3    1 H      24-45

           -------------------------------------------------
          |                Calculation Setup                |
           -------------------------------------------------

          program call               : xtb in.xyz --gfn 2 --opt --norestart
          hostname                   : 756d39058c4f
          coordinate file            : in.xyz
          random seed                :            1019135145


           -------------------------------------------------
          |                 G F N 2 - x T B                 |
           -------------------------------------------------

        Reference                      10.1021/acs.jctc.8b01176
      * Hamiltonian:
        H0-scaling (s, p, d)           1.850000    2.230000    2.230000
        zeta-weighting                 0.500000
      * Dispersion:
        s8                             2.700000
        a1                             0.520000
        a2                             5.000000
        s9                             5.000000
      * Repulsion:
        kExp                           1.500000    1.000000
        rExp                           1.000000
      * Coulomb:
        alpha                          2.000000
        third order                    shell-resolved
        anisotropic                    true
        a3                             3.000000
        a5                             4.000000
        cn-shift                       1.200000
        cn-exp                         4.000000
        max-rad                        5.000000


          ...................................................
          :                      SETUP                      :
          :.................................................:
          :  # basis functions                 114          :
          :  # atomic orbitals                 114          :
          :  # shells                           68          :
          :  # electrons                       136          :
          :  max. iterations                   250          :
          :  Hamiltonian                  GFN2-xTB          :
          :  restarted?                      false          :
          :  GBSA solvation                  false          :
          :  PC potential                    false          :
          :  electronic temp.          300.0000000     K    :
          :  accuracy                    1.0000000          :
          :  -> integral cutoff          0.2500000E+02      :
          :  -> integral neglect         0.1000000E-07      :
          :  -> SCF convergence          0.1000000E-05 Eh   :
          :  -> wf. convergence          0.1000000E-03 e    :
          :  Broyden damping             0.4000000          :
          :  net charge                          0          :
          :  unpaired electrons                  0          :
          ...................................................

 iter      E             dE          RMSdq      gap      omega  full diag
   1    -82.1098027 -0.821098E+02  0.450E+00    9.28       0.0  T
   2    -82.1861436 -0.763408E-01  0.241E+00    8.84       1.0  T
   3    -82.1880510 -0.190739E-02  0.767E-01    8.81       1.0  T
   4    -82.1900211 -0.197012E-02  0.156E-01    8.67       1.0  T
   5    -82.1902985 -0.277469E-03  0.742E-02    8.72       1.0  T
   6    -82.1903263 -0.277899E-04  0.204E-02    8.73       1.0  T
   7    -82.1903287 -0.238731E-05  0.839E-03    8.73       1.8  T
   8    -82.1903294 -0.674495E-06  0.221E-03    8.73       6.8  T
   9    -82.1903294 -0.267421E-07  0.860E-04    8.73      17.3  T
  10    -82.1903294 -0.847793E-08  0.246E-04    8.73      60.6  T

   *** convergence criteria satisfied after 10 iterations ***

         #    Occupation            Energy/Eh            Energy/eV
      -------------------------------------------------------------
         1        2.0000           -0.7359397             -20.0259
       ...           ...                  ...                  ...
        62        2.0000           -0.4319357             -11.7536
        63        2.0000           -0.4278182             -11.6415
        64        2.0000           -0.4232385             -11.5169
        65        2.0000           -0.4204899             -11.4421
        66        2.0000           -0.4127745             -11.2322
        67        2.0000           -0.4046284             -11.0105
        68        2.0000           -0.4013145             -10.9203 (HOMO)
        69                         -0.0804214              -2.1884 (LUMO)
        70                         -0.0622428              -1.6937
        71                         -0.0402885              -1.0963
        72                         -0.0257254              -0.7000
        73                         -0.0070484              -0.1918
       ...                                ...                  ...
       114                          0.2810790               7.6485
      -------------------------------------------------------------
                  HL-Gap            0.3208931 Eh            8.7319 eV
             Fermi-level           -0.2408680 Eh           -6.5544 eV

 SCC (total)                   0 d,  0 h,  0 min,  0.155 sec
 SCC setup                      ...        0 min,  0.000 sec (  0.082%)
 Dispersion                     ...        0 min,  0.002 sec (  1.451%)
 classical contributions        ...        0 min,  0.000 sec (  0.034%)
 integral evaluation            ...        0 min,  0.013 sec (  8.502%)
 iterations                     ...        0 min,  0.082 sec ( 52.842%)
 molecular gradient             ...        0 min,  0.052 sec ( 33.537%)
 printout                       ...        0 min,  0.005 sec (  3.544%)

         :::::::::::::::::::::::::::::::::::::::::::::::::::::
         ::                     SUMMARY                     ::
         :::::::::::::::::::::::::::::::::::::::::::::::::::::
         :: total energy             -81.634552212437 Eh    ::
         :: gradient norm              0.087570099950 Eh/a0 ::
         :: HOMO-LUMO gap              8.731944999284 eV    ::
         ::.................................................::
         :: SCC energy               -82.188935479103 Eh    ::
         :: -> isotropic ES            0.252626460302 Eh    ::
         :: -> anisotropic ES         -0.008731208243 Eh    ::
         :: -> anisotropic XC         -0.015730209070 Eh    ::
         :: -> dispersion             -0.044600888702 Eh    ::
         :: repulsion energy           0.554383266666 Eh    ::
         :: add. restraining           0.000000000000 Eh    ::
         :: total charge               0.000000000000 e     ::
         :::::::::::::::::::::::::::::::::::::::::::::::::::::

      ----------------------------------------------------------- 
     |                   =====================                   |
     |                        A N C O P T                        |
     |                   =====================                   |
     |               Approximate Normal Coordinate               |
     |                Rational Function Optimizer                |
      ----------------------------------------------------------- 

          ...................................................
          :                      SETUP                      :
          :.................................................:
          :   optimization level            normal          :
          :   max. optcycles                   200          :
          :   ANC micro-cycles                  20          :
          :   degrees of freedom               129          :
          :.................................................:
          :   RF solver                   davidson          :
          :   write xtbopt.log                true          :
          :   linear?                        false          :
          :   energy convergence         0.5000000E-05 Eh   :
          :   grad. convergence          0.1000000E-02 Eh/α :
          :   maximum RF displ.          1.0000000          :
          :   Hlow (freq-cutoff)         0.1000000E-01      :
          :   Hmax (freq-cutoff)         5.0000000          :
          :   S6 in model hess.         20.0000000          :
          ...................................................

generating ANC from exact Hessian ...
Using Lindh-Hessian (1995)
 Shifting diagonal of input Hessian by    9.8543581902682982E-003
 Lowest  eigenvalues of input Hessian
    0.000000    0.000000    0.000000    0.000000    0.000000    0.000000
    0.010000    0.010546    0.010751    0.011647    0.012139    0.012755
    0.013417    0.013671    0.014100    0.015311    0.015671    0.016837
 Highest eigenvalues
    1.432203    1.451680    1.463513    1.490186    1.498693    1.584093


........................................................................
.............................. CYCLE    1 ..............................
........................................................................

 iter      E             dE          RMSdq      gap      omega  full diag
   1    -82.1903294 -0.821903E+02  0.109E-04    8.73       0.0  T
   2    -82.1903294 -0.140332E-09  0.537E-05    8.73     277.7  T
   3    -82.1903294 -0.962075E-11  0.303E-05    8.73     491.8  T
     SCC iter.                  ...        0 min,  0.029 sec
     gradient                   ...        0 min,  0.028 sec
 * total energy  :   -81.6345522 Eh     change       -0.4967262E-09 Eh
   gradient norm :     0.0875689 Eh/α   predicted     0.0000000E+00 (-100.00%)
   displ. norm   :     0.3582663 α      lambda       -0.1684067E-01
   maximum displ.:     0.1360331 α      in ANC's #26, #37, #63, ...

........................................................................
.............................. CYCLE    2 ..............................
........................................................................

 iter      E             dE          RMSdq      gap      omega  full diag
   1    -82.2178896 -0.822179E+02  0.224E-01    9.00       0.0  T
   2    -82.2179399 -0.503235E-04  0.132E-01    9.00       1.0  T
   3    -82.2179360  0.394424E-05  0.217E-02    9.02       1.0  T
   4    -82.2179477 -0.116844E-04  0.556E-03    9.01       2.7  T
   5    -82.2179479 -0.204682E-06  0.261E-03    9.01       5.7  T
   6    -82.2179479 -0.355475E-07  0.103E-03    9.01      14.4  T
   7    -82.2179479 -0.462832E-08  0.288E-04    9.01      51.7  T
   8    -82.2179479 -0.680600E-09  0.109E-04    9.01     136.4  T
     SCC iter.                  ...        0 min,  0.056 sec
     gradient                   ...        0 min,  0.034 sec
 * total energy  :   -81.6462369 Eh     change       -0.1168471E-01 Eh
   gradient norm :     0.0465495 Eh/α   predicted    -0.9501727E-02 ( -18.68%)
   displ. norm   :     0.3374582 α      lambda       -0.6269544E-02
   maximum displ.:     0.1352389 α      in ANC's #26, #9, #37, ...

........................................................................
.............................. CYCLE    3 ..............................
........................................................................

 iter      E             dE          RMSdq      gap      omega  full diag
   1    -82.2337636 -0.822338E+02  0.145E-01    9.32       0.0  T
   2    -82.2337929 -0.292301E-04  0.863E-02    9.32       1.0  T
   3    -82.2337906  0.229562E-05  0.174E-02    9.34       1.0  T
   4    -82.2337975 -0.696043E-05  0.427E-03    9.33       3.5  T
   5    -82.2337977 -0.132364E-06  0.159E-03    9.33       9.4  T
   6    -82.2337977 -0.172416E-07  0.781E-04    9.33      19.1  T
   7    -82.2337977 -0.208138E-08  0.181E-04    9.33      82.2  T
     SCC iter.                  ...        0 min,  0.079 sec
     gradient                   ...        0 min,  0.034 sec
 * total energy  :   -81.6500641 Eh     change       -0.3827197E-02 Eh
   gradient norm :     0.0137635 Eh/α   predicted    -0.3496726E-02 (  -8.63%)
   displ. norm   :     0.2458006 α      lambda       -0.1109809E-02
   maximum displ.:     0.1220346 α      in ANC's #9, #2, #3, ...

........................................................................
.............................. CYCLE    4 ..............................
........................................................................

 iter      E             dE          RMSdq      gap      omega  full diag
   1    -82.2358319 -0.822358E+02  0.514E-02    9.44       0.0  T
   2    -82.2358348 -0.292888E-05  0.311E-02    9.44       1.0  T
   3    -82.2358348 -0.357256E-07  0.532E-03    9.44       2.8  T
   4    -82.2358354 -0.579531E-06  0.173E-03    9.44       8.6  T
   5    -82.2358354 -0.239625E-07  0.630E-04    9.44      23.7  T
   6    -82.2358354 -0.106972E-08  0.276E-04    9.44      54.0  T
     SCC iter.                  ...        0 min,  0.041 sec
     gradient                   ...        0 min,  0.024 sec
 * total energy  :   -81.6508749 Eh     change       -0.8107495E-03 Eh
   gradient norm :     0.0062143 Eh/α   predicted    -0.5884685E-03 ( -27.42%)
   displ. norm   :     0.3398073 α      lambda       -0.8298911E-03
   maximum displ.:     0.1757678 α      in ANC's #9, #2, #3, ...

........................................................................
.............................. CYCLE    5 ..............................
........................................................................

 iter      E             dE          RMSdq      gap      omega  full diag
   1    -82.2351728 -0.822352E+02  0.628E-02    9.50       0.0  T
   2    -82.2351753 -0.258083E-05  0.381E-02    9.50       1.0  T
   3    -82.2351755 -0.189868E-06  0.490E-03    9.50       3.0  T
   4    -82.2351761 -0.543360E-06  0.179E-03    9.50       8.3  T
   5    -82.2351761 -0.109722E-07  0.670E-04    9.50      22.3  T
   6    -82.2351761 -0.193668E-08  0.243E-04    9.50      61.3  T
     SCC iter.                  ...        0 min,  0.040 sec
     gradient                   ...        0 min,  0.023 sec
 * total energy  :   -81.6514706 Eh     change       -0.5957359E-03 Eh
   gradient norm :     0.0080886 Eh/α   predicted    -0.4628603E-03 ( -22.30%)
   displ. norm   :     0.3518659 α      lambda       -0.5445973E-03
   maximum displ.:     0.1740724 α      in ANC's #9, #2, #1, ...

........................................................................
.............................. CYCLE    6 ..............................
........................................................................

 iter      E             dE          RMSdq      gap      omega  full diag
   1    -82.2342380 -0.822342E+02  0.655E-02    9.52       0.0  T
   2    -82.2342400 -0.200025E-05  0.397E-02    9.52       1.0  T
   3    -82.2342404 -0.350361E-06  0.396E-03    9.52       3.8  T
   4    -82.2342407 -0.299116E-06  0.175E-03    9.52       8.5  T
   5    -82.2342407 -0.876729E-08  0.572E-04    9.52      26.1  T
   6    -82.2342407 -0.213629E-08  0.216E-04    9.52      69.1  T
     SCC iter.                  ...        0 min,  0.042 sec
     gradient                   ...        0 min,  0.027 sec
 * total energy  :   -81.6518844 Eh     change       -0.4137772E-03 Eh
   gradient norm :     0.0090425 Eh/α   predicted    -0.3060156E-03 ( -26.04%)
   displ. norm   :     0.3834836 α      lambda       -0.4964300E-03
   maximum displ.:     0.1739817 α      in ANC's #1, #9, #2, ...

........................................................................
.............................. CYCLE    7 ..............................
........................................................................

 iter      E             dE          RMSdq      gap      omega  full diag
   1    -82.2341282 -0.822341E+02  0.718E-02    9.52       0.0  T
   2    -82.2341307 -0.256214E-05  0.434E-02    9.51       1.0  T
   3    -82.2341313 -0.527655E-06  0.383E-03    9.52       3.9  T
   4    -82.2341314 -0.172280E-06  0.178E-03    9.51       8.4  T
   5    -82.2341314 -0.119489E-07  0.630E-04    9.51      23.6  T
   6    -82.2341314 -0.193792E-08  0.256E-04    9.51      58.3  T
     SCC iter.                  ...        0 min,  0.043 sec
     gradient                   ...        0 min,  0.017 sec
 * total energy  :   -81.6522653 Eh     change       -0.3809341E-03 Eh
   gradient norm :     0.0067586 Eh/α   predicted    -0.2847219E-03 ( -25.26%)
   displ. norm   :     0.3794114 α      lambda       -0.4127579E-03
   maximum displ.:     0.2034475 α      in ANC's #1, #4, #2, ...

........................................................................
.............................. CYCLE    8 ..............................
........................................................................

 iter      E             dE          RMSdq      gap      omega  full diag
   1    -82.2350802 -0.822351E+02  0.693E-02    9.51       0.0  T
   2    -82.2350836 -0.334225E-05  0.420E-02    9.50       1.0  T
   3    -82.2350839 -0.361732E-06  0.436E-03    9.50       3.4  T
   4    -82.2350842 -0.293138E-06  0.173E-03    9.50       8.6  T
   5    -82.2350842 -0.146151E-07  0.682E-04    9.50      21.9  T
   6    -82.2350842 -0.193251E-08  0.276E-04    9.50      54.0  T
     SCC iter.                  ...        0 min,  0.044 sec
     gradient                   ...        0 min,  0.023 sec
 * total energy  :   -81.6525761 Eh     change       -0.3108313E-03 Eh
   gradient norm :     0.0043460 Eh/α   predicted    -0.2361008E-03 ( -24.04%)
   displ. norm   :     0.3394061 α      lambda       -0.2817705E-03
   maximum displ.:     0.2059784 α      in ANC's #1, #4, #2, ...

........................................................................
.............................. CYCLE    9 ..............................
........................................................................

 iter      E             dE          RMSdq      gap      omega  full diag
   1    -82.2362791 -0.822363E+02  0.590E-02    9.50       0.0  T
   2    -82.2362818 -0.267972E-05  0.358E-02    9.50       1.0  T
   3    -82.2362819 -0.169766E-06  0.402E-03    9.50       3.7  T
   4    -82.2362822 -0.301106E-06  0.145E-03    9.50      10.3  T
   5    -82.2362823 -0.101262E-07  0.594E-04    9.50      25.1  T
   6    -82.2362823 -0.130764E-08  0.235E-04    9.50      63.4  T
     SCC iter.                  ...        0 min,  0.037 sec
     gradient                   ...        0 min,  0.017 sec
 * total energy  :   -81.6527947 Eh     change       -0.2185358E-03 Eh
   gradient norm :     0.0046150 Eh/α   predicted    -0.1571499E-03 ( -28.09%)
   displ. norm   :     0.3069026 α      lambda       -0.2241426E-03
   maximum displ.:     0.2029555 α      in ANC's #1, #4, #2, ...

........................................................................
.............................. CYCLE   10 ..............................
........................................................................

 iter      E             dE          RMSdq      gap      omega  full diag
   1    -82.2374057 -0.822374E+02  0.508E-02    9.50       0.0  T
   2    -82.2374074 -0.169801E-05  0.308E-02    9.50       1.0  T
   3    -82.2374075 -0.125658E-06  0.324E-03    9.50       4.6  T
   4    -82.2374077 -0.210731E-06  0.124E-03    9.50      12.1  T
   5    -82.2374078 -0.634546E-08  0.519E-04    9.50      28.7  T
   6    -82.2374078 -0.879766E-09  0.191E-04    9.50      77.9  T
     SCC iter.                  ...        0 min,  0.042 sec
     gradient                   ...        0 min,  0.025 sec
 * total energy  :   -81.6529794 Eh     change       -0.1846835E-03 Eh
   gradient norm :     0.0049898 Eh/α   predicted    -0.1226290E-03 ( -33.60%)
   displ. norm   :     0.3151193 α      lambda       -0.2245262E-03
   maximum displ.:     0.2199266 α      in ANC's #1, #4, #2, ...

........................................................................
.............................. CYCLE   11 ..............................
........................................................................

 iter      E             dE          RMSdq      gap      omega  full diag
   1    -82.2378650 -0.822379E+02  0.506E-02    9.51       0.0  T
   2    -82.2378662 -0.122144E-05  0.306E-02    9.50       1.0  T
   3    -82.2378664 -0.175986E-06  0.276E-03    9.51       5.4  T
   4    -82.2378665 -0.138577E-06  0.122E-03    9.51      12.2  T
   5    -82.2378665 -0.556611E-08  0.493E-04    9.51      30.2  T
   6    -82.2378665 -0.734616E-09  0.161E-04    9.51      92.7  T
     SCC iter.                  ...        0 min,  0.041 sec
     gradient                   ...        0 min,  0.028 sec
 * total energy  :   -81.6531687 Eh     change       -0.1893380E-03 Eh
   gradient norm :     0.0044948 Eh/α   predicted    -0.1234167E-03 ( -34.82%)
   displ. norm   :     0.3180266 α      lambda       -0.2185831E-03
   maximum displ.:     0.2357800 α      in ANC's #1, #4, #2, ...

........................................................................
.............................. CYCLE   12 ..............................
........................................................................

 iter      E             dE          RMSdq      gap      omega  full diag
   1    -82.2381295 -0.822381E+02  0.495E-02    9.51       0.0  T
   2    -82.2381305 -0.958595E-06  0.299E-02    9.51       1.0  T
   3    -82.2381307 -0.239533E-06  0.248E-03    9.51       6.0  T
   4    -82.2381308 -0.847146E-07  0.125E-03    9.51      12.0  T
   5    -82.2381308 -0.596113E-08  0.480E-04    9.51      31.0  T
   6    -82.2381308 -0.710244E-09  0.128E-04    9.51     116.0  T
     SCC iter.                  ...        0 min,  0.035 sec
     gradient                   ...        0 min,  0.062 sec
 * total energy  :   -81.6533513 Eh     change       -0.1826209E-03 Eh
   gradient norm :     0.0038613 Eh/α   predicted    -0.1203459E-03 ( -34.10%)
   displ. norm   :     0.3012954 α      lambda       -0.1842514E-03
   maximum displ.:     0.2317968 α      in ANC's #1, #4, #2, ...

........................................................................
.............................. CYCLE   13 ..............................
........................................................................

 iter      E             dE          RMSdq      gap      omega  full diag
   1    -82.2371909 -0.822372E+02  0.454E-02    9.51       0.0  T
   2    -82.2371918 -0.846325E-06  0.274E-02    9.51       1.0  T
   3    -82.2371920 -0.178477E-06  0.245E-03    9.51       6.1  T
   4    -82.2371921 -0.982831E-07  0.117E-03    9.51      12.7  T
   5    -82.2371921 -0.467975E-08  0.431E-04    9.51      34.6  T
   6    -82.2371921 -0.665807E-09  0.149E-04    9.51     100.1  T
     SCC iter.                  ...        0 min,  0.043 sec
     gradient                   ...        0 min,  0.026 sec
 * total energy  :   -81.6535054 Eh     change       -0.1541224E-03 Eh
   gradient norm :     0.0035924 Eh/α   predicted    -0.1004903E-03 ( -34.80%)
   displ. norm   :     0.2351693 α      lambda       -0.1622977E-03
   maximum displ.:     0.1943542 α      in ANC's #1, #4, #7, ...

........................................................................
.............................. CYCLE   14 ..............................
........................................................................

 iter      E             dE          RMSdq      gap      omega  full diag
   1    -82.2380136 -0.822380E+02  0.364E-02    9.51       0.0  T
   2    -82.2380142 -0.605587E-06  0.220E-02    9.51       1.0  T
   3    -82.2380144 -0.177125E-06  0.206E-03    9.51       7.2  T
   4    -82.2380145 -0.582929E-07  0.106E-03    9.51      14.1  T
   5    -82.2380145 -0.347835E-08  0.360E-04    9.51      41.4  T
   6    -82.2380145 -0.566132E-09  0.125E-04    9.51     119.7  T
     SCC iter.                  ...        0 min,  0.049 sec
     gradient                   ...        0 min,  0.019 sec
 * total energy  :   -81.6536377 Eh     change       -0.1322212E-03 Eh
   gradient norm :     0.0044058 Eh/α   predicted    -0.8564219E-04 ( -35.23%)
   displ. norm   :     0.2080181 α      lambda       -0.1451467E-03
   maximum displ.:     0.1773631 α      in ANC's #1, #4, #2, ...

........................................................................
.............................. CYCLE   15 ..............................
........................................................................

 iter      E             dE          RMSdq      gap      omega  full diag
   1    -82.2376652 -0.822377E+02  0.301E-02    9.51       0.0  T
   2    -82.2376656 -0.423529E-06  0.182E-02    9.51       1.0  T
   3    -82.2376657 -0.103565E-06  0.181E-03    9.51       8.2  T
   4    -82.2376657 -0.550766E-07  0.874E-04    9.51      17.1  T
   5    -82.2376657 -0.242601E-08  0.308E-04    9.51      48.3  T
     SCC iter.                  ...        0 min,  0.033 sec
     gradient                   ...        0 min,  0.019 sec
 * total energy  :   -81.6537700 Eh     change       -0.1323499E-03 Eh
   gradient norm :     0.0035050 Eh/α   predicted    -0.7571601E-04 ( -42.79%)
   displ. norm   :     0.1783070 α      lambda       -0.1399357E-03
   maximum displ.:     0.1577074 α      in ANC's #1, #2, #7, ...

........................................................................
.............................. CYCLE   16 ..............................
........................................................................

 iter      E             dE          RMSdq      gap      omega  full diag
   1    -82.2377706 -0.822378E+02  0.254E-02    9.50       0.0  T
   2    -82.2377709 -0.282097E-06  0.154E-02    9.50       1.0  T
   3    -82.2377709 -0.941377E-07  0.142E-03    9.50      10.5  T
   4    -82.2377710 -0.271913E-07  0.746E-04    9.50      20.0  T
   5    -82.2377710 -0.207142E-08  0.253E-04    9.50      59.0  T
     SCC iter.                  ...        0 min,  0.028 sec
     gradient                   ...        0 min,  0.029 sec
 * total energy  :   -81.6538993 Eh     change       -0.1292536E-03 Eh
   gradient norm :     0.0028124 Eh/α   predicted    -0.7219458E-04 ( -44.15%)
   displ. norm   :     0.1798350 α      lambda       -0.1423100E-03
   maximum displ.:     0.1609098 α      in ANC's #1, #7, #11, ...

........................................................................
.............................. CYCLE   17 ..............................
........................................................................

 iter      E             dE          RMSdq      gap      omega  full diag
   1    -82.2380626 -0.822381E+02  0.251E-02    9.50       0.0  T
   2    -82.2380628 -0.264832E-06  0.153E-02    9.50       1.0  T
   3    -82.2380629 -0.994501E-07  0.135E-03    9.50      11.0  T
   4    -82.2380629 -0.212931E-07  0.732E-04    9.50      20.4  T
   5    -82.2380629 -0.198015E-08  0.240E-04    9.50      62.0  T
     SCC iter.                  ...        0 min,  0.029 sec
     gradient                   ...        0 min,  0.019 sec
 * total energy  :   -81.6540293 Eh     change       -0.1300278E-03 Eh
   gradient norm :     0.0022370 Eh/α   predicted    -0.7346800E-04 ( -43.50%)
   displ. norm   :     0.1713497 α      lambda       -0.1265528E-03
   maximum displ.:     0.1542527 α      in ANC's #1, #11, #8, ...

........................................................................
.............................. CYCLE   18 ..............................
........................................................................

 iter      E             dE          RMSdq      gap      omega  full diag
   1    -82.2383250 -0.822383E+02  0.232E-02    9.49       0.0  T
   2    -82.2383253 -0.211125E-06  0.141E-02    9.49       1.1  T
   3    -82.2383253 -0.861064E-07  0.120E-03    9.49      12.4  T
   4    -82.2383254 -0.141462E-07  0.664E-04    9.49      22.4  T
   5    -82.2383254 -0.145454E-08  0.206E-04    9.49      72.2  T
     SCC iter.                  ...        0 min,  0.026 sec
     gradient                   ...        0 min,  0.026 sec
 * total energy  :   -81.6541464 Eh     change       -0.1170949E-03 Eh
   gradient norm :     0.0022410 Eh/α   predicted    -0.6513837E-04 ( -44.37%)
   displ. norm   :     0.1492152 α      lambda       -0.1074607E-03
   maximum displ.:     0.1345120 α      in ANC's #1, #4, #11, ...

........................................................................
.............................. CYCLE   19 ..............................
........................................................................

 iter      E             dE          RMSdq      gap      omega  full diag
   1    -82.2385389 -0.822385E+02  0.197E-02    9.50       0.0  T
   2    -82.2385390 -0.144774E-06  0.119E-02    9.50       1.2  T
   3    -82.2385391 -0.601021E-07  0.100E-03    9.50      14.9  T
   4    -82.2385391 -0.901086E-08  0.557E-04    9.50      26.8  T
   5    -82.2385391 -0.101770E-08  0.177E-04    9.50      84.4  T
     SCC iter.                  ...        0 min,  0.031 sec
     gradient                   ...        0 min,  0.023 sec
 * total energy  :   -81.6542485 Eh     change       -0.1021472E-03 Eh
   gradient norm :     0.0024015 Eh/α   predicted    -0.5493096E-04 ( -46.22%)
   displ. norm   :     0.1366645 α      lambda       -0.1019600E-03
   maximum displ.:     0.1219466 α      in ANC's #1, #4, #8, ...

........................................................................
.............................. CYCLE   20 ..............................
........................................................................

 iter      E             dE          RMSdq      gap      omega  full diag
   1    -82.2387354 -0.822387E+02  0.182E-02    9.50       0.0  T
   2    -82.2387355 -0.124237E-06  0.110E-02    9.50       1.3  T
   3    -82.2387355 -0.478527E-07  0.926E-04    9.50      16.1  T
   4    -82.2387355 -0.811153E-08  0.507E-04    9.50      29.4  T
     SCC iter.                  ...        0 min,  0.026 sec
     gradient                   ...        0 min,  0.031 sec
 * total energy  :   -81.6543469 Eh     change       -0.9838428E-04 Eh
   gradient norm :     0.0023599 Eh/α   predicted    -0.5193544E-04 ( -47.21%)
   displ. norm   :     0.1422035 α      lambda       -0.1099651E-03
   maximum displ.:     0.1253483 α      in ANC's #1, #4, #10, ...
 * RMSD in coord.:     0.6182357 α      energy gain  -0.1979471E-01 Eh

generating ANC from exact Hessian ...
Using Lindh-Hessian (1995)
 Shifting diagonal of input Hessian by    9.8025352681051694E-003
 Lowest  eigenvalues of input Hessian
    0.000000    0.000000    0.000000    0.000000    0.000000    0.000000
    0.010000    0.010670    0.010809    0.011876    0.012153    0.013239
    0.013626    0.013989    0.014641    0.015500    0.016213    0.017463
 Highest eigenvalues
    1.523079    1.525529    1.550199    1.582676    1.636626    1.742729


........................................................................
.............................. CYCLE   21 ..............................
........................................................................

 iter      E             dE          RMSdq      gap      omega  full diag
   1    -82.2388346 -0.822388E+02  0.197E-02    9.50       0.0  T
   2    -82.2388348 -0.151670E-06  0.119E-02    9.50       1.2  T
   3    -82.2388348 -0.510644E-07  0.103E-03    9.50      14.5  T
   4    -82.2388348 -0.121308E-07  0.549E-04    9.50      27.1  T
   5    -82.2388348 -0.141713E-08  0.222E-04    9.50      67.3  T
     SCC iter.                  ...        0 min,  0.032 sec
     gradient                   ...        0 min,  0.029 sec
 * total energy  :   -81.6544530 Eh     change       -0.1060445E-03 Eh
   gradient norm :     0.0021280 Eh/α   predicted     0.0000000E+00 (-100.00%)
   displ. norm   :     0.0788402 α      lambda       -0.4465874E-05
   maximum displ.:     0.0753583 α      in ANC's #1, #10, #13, ...

........................................................................
.............................. CYCLE   22 ..............................
........................................................................

 iter      E             dE          RMSdq      gap      omega  full diag
   1    -82.2387830 -0.822388E+02  0.105E-02    9.51       0.0  T
   2    -82.2387830 -0.682654E-07  0.633E-03    9.51       2.4  T
   3    -82.2387830 -0.131246E-07  0.669E-04    9.51      22.3  T
   4    -82.2387830 -0.662637E-08  0.314E-04    9.51      47.5  T
     SCC iter.                  ...        0 min,  0.027 sec
     gradient                   ...        0 min,  0.026 sec
 * total energy  :   -81.6545224 Eh     change       -0.6946607E-04 Eh
   gradient norm :     0.0012935 Eh/α   predicted    -0.3619539E-04 ( -47.89%)
   displ. norm   :     0.1657875 α      lambda       -0.9510179E-04
   maximum displ.:     0.1499724 α      in ANC's #1, #13, #10, ...

........................................................................
.............................. CYCLE   23 ..............................
........................................................................

 iter      E             dE          RMSdq      gap      omega  full diag
   1    -82.2386375 -0.822386E+02  0.242E-02    9.51       0.0  T
   2    -82.2386377 -0.255246E-06  0.145E-02    9.51       1.0  T
   3    -82.2386378 -0.592185E-07  0.125E-03    9.51      11.9  T
   4    -82.2386378 -0.218464E-07  0.624E-04    9.51      23.9  T
   5    -82.2386378 -0.157760E-08  0.248E-04    9.51      60.1  T
     SCC iter.                  ...        0 min,  0.029 sec
     gradient                   ...        0 min,  0.026 sec
 * total energy  :   -81.6546541 Eh     change       -0.1316570E-03 Eh
   gradient norm :     0.0012421 Eh/α   predicted    -0.4813198E-04 ( -63.44%)
   displ. norm   :     0.1923141 α      lambda       -0.9604590E-04
   maximum displ.:     0.1725832 α      in ANC's #1, #13, #10, ...

........................................................................
.............................. CYCLE   24 ..............................
........................................................................

 iter      E             dE          RMSdq      gap      omega  full diag
   1    -82.2386848 -0.822387E+02  0.275E-02    9.52       0.0  T
   2    -82.2386850 -0.228299E-06  0.165E-02    9.52       1.0  T
   3    -82.2386851 -0.707087E-07  0.126E-03    9.52      11.9  T
   4    -82.2386851 -0.204311E-07  0.673E-04    9.52      22.1  T
   5    -82.2386851 -0.181186E-08  0.251E-04    9.52      59.3  T
     SCC iter.                  ...        0 min,  0.028 sec
     gradient                   ...        0 min,  0.025 sec
 * total energy  :   -81.6547898 Eh     change       -0.1357105E-03 Eh
   gradient norm :     0.0017704 Eh/α   predicted    -0.4881726E-04 ( -64.03%)
   displ. norm   :     0.1920068 α      lambda       -0.9053151E-04
   maximum displ.:     0.1726984 α      in ANC's #1, #2, #13, ...

........................................................................
.............................. CYCLE   25 ..............................
........................................................................

 iter      E             dE          RMSdq      gap      omega  full diag
   1    -82.2388208 -0.822388E+02  0.259E-02    9.52       0.0  T
   2    -82.2388210 -0.198525E-06  0.156E-02    9.52       1.0  T
   3    -82.2388211 -0.640600E-07  0.121E-03    9.52      12.3  T
   4    -82.2388211 -0.199243E-07  0.651E-04    9.52      22.9  T
   5    -82.2388211 -0.150241E-08  0.226E-04    9.52      65.9  T
     SCC iter.                  ...        0 min,  0.029 sec
     gradient                   ...        0 min,  0.029 sec
 * total energy  :   -81.6549212 Eh     change       -0.1314197E-03 Eh
   gradient norm :     0.0017759 Eh/α   predicted    -0.4602094E-04 ( -64.98%)
   displ. norm   :     0.1882858 α      lambda       -0.8963663E-04
   maximum displ.:     0.1695638 α      in ANC's #1, #2, #9, ...

........................................................................
.............................. CYCLE   26 ..............................
........................................................................

 iter      E             dE          RMSdq      gap      omega  full diag
   1    -82.2390708 -0.822391E+02  0.241E-02    9.52       0.0  T
   2    -82.2390710 -0.193464E-06  0.145E-02    9.52       1.0  T
   3    -82.2390710 -0.622546E-07  0.117E-03    9.52      12.7  T
   4    -82.2390711 -0.176713E-07  0.635E-04    9.52      23.5  T
   5    -82.2390711 -0.136524E-08  0.220E-04    9.52      67.7  T
     SCC iter.                  ...        0 min,  0.029 sec
     gradient                   ...        0 min,  0.020 sec
 * total energy  :   -81.6550534 Eh     change       -0.1321505E-03 Eh
   gradient norm :     0.0014868 Eh/α   predicted    -0.4552481E-04 ( -65.55%)
   displ. norm   :     0.1951503 α      lambda       -0.9569299E-04
   maximum displ.:     0.1750172 α      in ANC's #1, #2, #9, ...

........................................................................
.............................. CYCLE   27 ..............................
........................................................................

 iter      E             dE          RMSdq      gap      omega  full diag
   1    -82.2393048 -0.822393E+02  0.237E-02    9.52       0.0  T
   2    -82.2393050 -0.213246E-06  0.142E-02    9.52       1.0  T
   3    -82.2393051 -0.677996E-07  0.118E-03    9.52      12.6  T
   4    -82.2393051 -0.161054E-07  0.645E-04    9.52      23.1  T
   5    -82.2393051 -0.137977E-08  0.222E-04    9.52      67.1  T
     SCC iter.                  ...        0 min,  0.036 sec
     gradient                   ...        0 min,  0.025 sec
 * total energy  :   -81.6551953 Eh     change       -0.1418873E-03 Eh
   gradient norm :     0.0012323 Eh/α   predicted    -0.4865671E-04 ( -65.71%)
   displ. norm   :     0.2159961 α      lambda       -0.1085818E-03
   maximum displ.:     0.1922694 α      in ANC's #1, #2, #3, ...

........................................................................
.............................. CYCLE   28 ..............................
........................................................................

 iter      E             dE          RMSdq      gap      omega  full diag
   1    -82.2395408 -0.822395E+02  0.255E-02    9.53       0.0  T
   2    -82.2395411 -0.276600E-06  0.154E-02    9.53       1.0  T
   3    -82.2395411 -0.907285E-07  0.131E-03    9.53      11.3  T
   4    -82.2395412 -0.171993E-07  0.724E-04    9.53      20.6  T
   5    -82.2395412 -0.172071E-08  0.251E-04    9.53      59.4  T
     SCC iter.                  ...        0 min,  0.029 sec
     gradient                   ...        0 min,  0.027 sec
 * total energy  :   -81.6553566 Eh     change       -0.1613830E-03 Eh
   gradient norm :     0.0012055 Eh/α   predicted    -0.5541755E-04 ( -65.66%)
   displ. norm   :     0.2469227 α      lambda       -0.1261412E-03
   maximum displ.:     0.2175739 α      in ANC's #1, #2, #3, ...

........................................................................
.............................. CYCLE   29 ..............................
........................................................................

 iter      E             dE          RMSdq      gap      omega  full diag
   1    -82.2397025 -0.822397E+02  0.291E-02    9.53       0.0  T
   2    -82.2397029 -0.372637E-06  0.175E-02    9.53       1.0  T
   3    -82.2397030 -0.124498E-06  0.151E-03    9.53       9.9  T
   4    -82.2397031 -0.198528E-07  0.826E-04    9.53      18.0  T
   5    -82.2397031 -0.223022E-08  0.288E-04    9.53      51.7  T
     SCC iter.                  ...        0 min,  0.029 sec
     gradient                   ...        0 min,  0.026 sec
 * total energy  :   -81.6555446 Eh     change       -0.1879357E-03 Eh
   gradient norm :     0.0014264 Eh/α   predicted    -0.6478053E-04 ( -65.53%)
   displ. norm   :     0.2904981 α      lambda       -0.1499813E-03
   maximum displ.:     0.2531801 α      in ANC's #1, #2, #3, ...

........................................................................
.............................. CYCLE   30 ..............................
........................................................................

 iter      E             dE          RMSdq      gap      omega  full diag
   1    -82.2398273 -0.822398E+02  0.344E-02    9.53       0.0  T
   2    -82.2398278 -0.543799E-06  0.208E-02    9.53       1.0  T
   3    -82.2398280 -0.182713E-06  0.182E-03    9.53       8.2  T
   4    -82.2398280 -0.272327E-07  0.985E-04    9.53      15.1  T
   5    -82.2398280 -0.324341E-08  0.362E-04    9.53      41.2  T
     SCC iter.                  ...        0 min,  0.031 sec
     gradient                   ...        0 min,  0.018 sec
 * total energy  :   -81.6557688 Eh     change       -0.2242108E-03 Eh
   gradient norm :     0.0018472 Eh/α   predicted    -0.7780444E-04 ( -65.30%)
   displ. norm   :     0.3446904 α      lambda       -0.1800430E-03
   maximum displ.:     0.2968234 α      in ANC's #1, #2, #7, ...

........................................................................
.............................. CYCLE   31 ..............................
........................................................................

 iter      E             dE          RMSdq      gap      omega  full diag
   1    -82.2398377 -0.822398E+02  0.414E-02    9.54       0.0  T
   2    -82.2398385 -0.808512E-06  0.250E-02    9.54       1.0  T
   3    -82.2398387 -0.262298E-06  0.222E-03    9.54       6.7  T
   4    -82.2398388 -0.406946E-07  0.118E-03    9.54      12.6  T
   5    -82.2398388 -0.485377E-08  0.455E-04    9.54      32.8  T
   6    -82.2398388 -0.768168E-09  0.139E-04    9.54     107.5  T
     SCC iter.                  ...        0 min,  0.034 sec
     gradient                   ...        0 min,  0.017 sec
 * total energy  :   -81.6560387 Eh     change       -0.2699150E-03 Eh
   gradient norm :     0.0024806 Eh/α   predicted    -0.9477835E-04 ( -64.89%)
   displ. norm   :     0.2804927 α      lambda       -0.2229300E-03
   maximum displ.:     0.2387531 α      in ANC's #1, #2, #4, ...

........................................................................
.............................. CYCLE   32 ..............................
........................................................................

 iter      E             dE          RMSdq      gap      omega  full diag
   1    -82.2397339 -0.822397E+02  0.341E-02    9.54       0.0  T
   2    -82.2397345 -0.563168E-06  0.206E-02    9.54       1.0  T
   3    -82.2397346 -0.172344E-06  0.187E-03    9.54       8.0  T
   4    -82.2397347 -0.315851E-07  0.974E-04    9.54      15.3  T
   5    -82.2397347 -0.360322E-08  0.393E-04    9.54      37.9  T
     SCC iter.                  ...        0 min,  0.032 sec
     gradient                   ...        0 min,  0.017 sec
 * total energy  :   -81.6562613 Eh     change       -0.2226273E-03 Eh
   gradient norm :     0.0031209 Eh/α   predicted    -0.1202351E-03 ( -45.99%)
   displ. norm   :     0.3119069 α      lambda       -0.2509196E-03
   maximum displ.:     0.2624575 α      in ANC's #1, #2, #4, ...

........................................................................
.............................. CYCLE   33 ..............................
........................................................................

 iter      E             dE          RMSdq      gap      omega  full diag
   1    -82.2395461 -0.822395E+02  0.385E-02    9.55       0.0  T
   2    -82.2395468 -0.744990E-06  0.233E-02    9.55       1.0  T
   3    -82.2395470 -0.215137E-06  0.215E-03    9.55       6.9  T
   4    -82.2395471 -0.442740E-07  0.110E-03    9.55      13.5  T
   5    -82.2395471 -0.489126E-08  0.457E-04    9.55      32.6  T
   6    -82.2395471 -0.771465E-09  0.148E-04    9.55     100.7  T
     SCC iter.                  ...        0 min,  0.030 sec
     gradient                   ...        0 min,  0.024 sec
 * total energy  :   -81.6565116 Eh     change       -0.2502381E-03 Eh
   gradient norm :     0.0039502 Eh/α   predicted    -0.1376669E-03 ( -44.99%)
   displ. norm   :     0.3511380 α      lambda       -0.2857406E-03
   maximum displ.:     0.2925093 α      in ANC's #1, #2, #4, ...

........................................................................
.............................. CYCLE   34 ..............................
........................................................................

 iter      E             dE          RMSdq      gap      omega  full diag
   1    -82.2392035 -0.822392E+02  0.437E-02    9.55       0.0  T
   2    -82.2392045 -0.991508E-06  0.264E-02    9.55       1.0  T
   3    -82.2392048 -0.263401E-06  0.250E-03    9.55       6.0  T
   4    -82.2392048 -0.672582E-07  0.126E-03    9.55      11.9  T
   5    -82.2392048 -0.692759E-08  0.532E-04    9.55      28.0  T
   6    -82.2392048 -0.102986E-08  0.177E-04    9.55      84.3  T
     SCC iter.                  ...        0 min,  0.043 sec
     gradient                   ...        0 min,  0.027 sec
 * total energy  :   -81.6567949 Eh     change       -0.2833769E-03 Eh
   gradient norm :     0.0050584 Eh/α   predicted    -0.1604894E-03 ( -43.37%)
   displ. norm   :     0.4044950 α      lambda       -0.3321367E-03
   maximum displ.:     0.3348295 α      in ANC's #1, #2, #7, ...

........................................................................
.............................. CYCLE   35 ..............................
........................................................................

 iter      E             dE          RMSdq      gap      omega  full diag
   1    -82.2386475 -0.822386E+02  0.505E-02    9.56       0.0  T
   2    -82.2386489 -0.138785E-05  0.305E-02    9.56       1.0  T
   3    -82.2386493 -0.338373E-06  0.298E-03    9.56       5.0  T
   4    -82.2386494 -0.102275E-06  0.146E-03    9.56      10.2  T
   5    -82.2386494 -0.100526E-07  0.627E-04    9.56      23.8  T
   6    -82.2386494 -0.137894E-08  0.211E-04    9.56      70.5  T
     SCC iter.                  ...        0 min,  0.038 sec
     gradient                   ...        0 min,  0.023 sec
 * total energy  :   -81.6571209 Eh     change       -0.3259819E-03 Eh
   gradient norm :     0.0065382 Eh/α   predicted    -0.1932432E-03 ( -40.72%)
   displ. norm   :     0.4805862 α      lambda       -0.3958337E-03
   maximum displ.:     0.3978968 α      in ANC's #1, #2, #7, ...

........................................................................
.............................. CYCLE   36 ..............................
........................................................................

 iter      E             dE          RMSdq      gap      omega  full diag
   1    -82.2377797 -0.822378E+02  0.598E-02    9.56       0.0  T
   2    -82.2377817 -0.206054E-05  0.361E-02    9.56       1.0  T
   3    -82.2377822 -0.457910E-06  0.364E-03    9.57       4.1  T
   4    -82.2377823 -0.161782E-06  0.174E-03    9.57       8.6  T
   5    -82.2377824 -0.154149E-07  0.757E-04    9.57      19.7  T
   6    -82.2377824 -0.192910E-08  0.259E-04    9.57      57.6  T
     SCC iter.                  ...        0 min,  0.036 sec
     gradient                   ...        0 min,  0.032 sec
 * total energy  :   -81.6575008 Eh     change       -0.3798869E-03 Eh
   gradient norm :     0.0085252 Eh/α   predicted    -0.2436332E-03 ( -35.87%)
   displ. norm   :     0.5803409 α      lambda       -0.4714741E-03
   maximum displ.:     0.4849588 α      in ANC's #1, #2, #7, ...

........................................................................
.............................. CYCLE   37 ..............................
........................................................................

 iter      E             dE          RMSdq      gap      omega  full diag
   1    -82.2364999 -0.822365E+02  0.714E-02    9.57       0.0  T
   2    -82.2365031 -0.315274E-05  0.431E-02    9.57       1.0  T
   3    -82.2365037 -0.638281E-06  0.452E-03    9.57       3.3  T
   4    -82.2365040 -0.258040E-06  0.211E-03    9.57       7.1  T
   5    -82.2365040 -0.243967E-07  0.920E-04    9.57      16.2  T
   6    -82.2365040 -0.276070E-08  0.319E-04    9.57      46.7  T
     SCC iter.                  ...        0 min,  0.044 sec
     gradient                   ...        0 min,  0.023 sec
 * total energy  :   -81.6579292 Eh     change       -0.4283427E-03 Eh
   gradient norm :     0.0110838 Eh/α   predicted    -0.3151339E-03 ( -26.43%)
   displ. norm   :     0.7016391 α      lambda       -0.5328276E-03
   maximum displ.:     0.5988574 α      in ANC's #1, #2, #7, ...

........................................................................
.............................. CYCLE   38 ..............................
........................................................................

 iter      E             dE          RMSdq      gap      omega  full diag
   1    -82.2348062 -0.822348E+02  0.849E-02    9.57       0.0  T
   2    -82.2348110 -0.481035E-05  0.512E-02    9.58       1.0  T
   3    -82.2348119 -0.892422E-06  0.562E-03    9.58       2.7  T
   4    -82.2348123 -0.409197E-06  0.257E-03    9.58       5.8  T
   5    -82.2348124 -0.385108E-07  0.111E-03    9.58      13.4  T
   6    -82.2348124 -0.396700E-08  0.393E-04    9.58      37.9  T
   7    -82.2348124 -0.104812E-08  0.922E-05    9.58     161.8  T
     SCC iter.                  ...        0 min,  0.046 sec
     gradient                   ...        0 min,  0.030 sec
 * total energy  :   -81.6583543 Eh     change       -0.4251610E-03 Eh
   gradient norm :     0.0140183 Eh/α   predicted    -0.3975704E-03 (  -6.49%)
   displ. norm   :     0.5357371 α      lambda       -0.3932881E-03
   maximum displ.:     0.4742136 α      in ANC's #1, #2, #7, ...

........................................................................
.............................. CYCLE   39 ..............................
........................................................................

 iter      E             dE          RMSdq      gap      omega  full diag
   1    -82.2355034 -0.822355E+02  0.633E-02    9.58       0.0  T
   2    -82.2355060 -0.261923E-05  0.381E-02    9.58       1.0  T
   3    -82.2355065 -0.472010E-06  0.435E-03    9.59       3.4  T
   4    -82.2355067 -0.269671E-06  0.198E-03    9.59       7.5  T
   5    -82.2355068 -0.208001E-07  0.824E-04    9.59      18.1  T
   6    -82.2355068 -0.219201E-08  0.292E-04    9.59      51.1  T
     SCC iter.                  ...        0 min,  0.034 sec
     gradient                   ...        0 min,  0.026 sec
 * total energy  :   -81.6586595 Eh     change       -0.3051869E-03 Eh
   gradient norm :     0.0133592 Eh/α   predicted    -0.2530847E-03 ( -17.07%)
   displ. norm   :     0.4088157 α      lambda       -0.4232787E-03
   maximum displ.:     0.3669186 α      in ANC's #1, #7, #3, ...

........................................................................
.............................. CYCLE   40 ..............................
........................................................................

 iter      E             dE          RMSdq      gap      omega  full diag
   1    -82.2395791 -0.822396E+02  0.501E-02    9.60       0.0  T
   2    -82.2395805 -0.145244E-05  0.301E-02    9.60       1.0  T
   3    -82.2395808 -0.253066E-06  0.364E-03    9.60       4.1  T
   4    -82.2395810 -0.242701E-06  0.164E-03    9.60       9.1  T
   5    -82.2395810 -0.987998E-08  0.615E-04    9.60      24.2  T
   6    -82.2395810 -0.160304E-08  0.224E-04    9.60      66.4  T
     SCC iter.                  ...        0 min,  0.037 sec
     gradient                   ...        0 min,  0.037 sec
 * total energy  :   -81.6589904 Eh     change       -0.3309387E-03 Eh
   gradient norm :     0.0098376 Eh/α   predicted    -0.2470170E-03 ( -25.36%)
   displ. norm   :     0.4362343 α      lambda       -0.4613703E-03
   maximum displ.:     0.3729998 α      in ANC's #1, #7, #3, ...

........................................................................
.............................. CYCLE   41 ..............................
........................................................................

 iter      E             dE          RMSdq      gap      omega  full diag
   1    -82.2432580 -0.822433E+02  0.611E-02    9.61       0.0  T
   2    -82.2432596 -0.165983E-05  0.366E-02    9.61       1.0  T
   3    -82.2432600 -0.323192E-06  0.379E-03    9.61       3.9  T
   4    -82.2432602 -0.257637E-06  0.178E-03    9.61       8.4  T
   5    -82.2432602 -0.140424E-07  0.667E-04    9.61      22.3  T
   6    -82.2432602 -0.152214E-08  0.231E-04    9.61      64.4  T
     SCC iter.                  ...        0 min,  0.033 sec
     gradient                   ...        0 min,  0.024 sec
 * total energy  :   -81.6593512 Eh     change       -0.3607137E-03 Eh
   gradient norm :     0.0066161 Eh/α   predicted    -0.2745919E-03 ( -23.88%)
   displ. norm   :     0.5255491 α      lambda       -0.5682687E-03
   maximum displ.:     0.4078336 α      in ANC's #1, #7, #3, ...

........................................................................
.............................. CYCLE   42 ..............................
........................................................................

 iter      E             dE          RMSdq      gap      omega  full diag
   1    -82.2434763 -0.822435E+02  0.779E-02    9.61       0.0  T
   2    -82.2434796 -0.323805E-05  0.471E-02    9.61       1.0  T
   3    -82.2434804 -0.833135E-06  0.562E-03    9.61       2.7  T
   4    -82.2434809 -0.552724E-06  0.279E-03    9.61       5.3  T
   5    -82.2434810 -0.260569E-07  0.907E-04    9.61      16.4  T
   6    -82.2434810 -0.444940E-08  0.318E-04    9.61      46.9  T
     SCC iter.                  ...        0 min,  0.051 sec
     gradient                   ...        0 min,  0.037 sec
 * total energy  :   -81.6596828 Eh     change       -0.3315945E-03 Eh
   gradient norm :     0.0167161 Eh/α   predicted    -0.3626137E-03 (   9.35%)
   displ. norm   :     0.4041471 α      lambda       -0.6986072E-03
   maximum displ.:     0.1990586 α      in ANC's #3, #1, #2, ...
 * RMSD in coord.:     1.0288132 α      energy gain  -0.5335829E-02 Eh

generating ANC from exact Hessian ...
Using Lindh-Hessian (1995)
 Shifting diagonal of input Hessian by    9.5883151784411647E-003
 Lowest  eigenvalues of input Hessian
    0.000000    0.000000    0.000000    0.000000    0.000000    0.000000
    0.010000    0.010554    0.011288    0.011783    0.012201    0.013293
    0.013731    0.014110    0.014806    0.015551    0.016385    0.017406
 Highest eigenvalues
    1.519340    1.528950    1.552906    1.585509    1.638508    1.748214


........................................................................
.............................. CYCLE   43 ..............................
........................................................................

 iter      E             dE          RMSdq      gap      omega  full diag
   1    -82.2467363 -0.822467E+02  0.786E-02    9.61       0.0  T
   2    -82.2467392 -0.286110E-05  0.473E-02    9.62       1.0  T
   3    -82.2467392 -0.596547E-07  0.476E-03    9.62       3.1  T
   4    -82.2467397 -0.532235E-06  0.162E-03    9.62       9.2  T
   5    -82.2467398 -0.731542E-08  0.610E-04    9.62      24.4  T
   6    -82.2467398 -0.320961E-08  0.242E-04    9.62      61.6  T
     SCC iter.                  ...        0 min,  0.035 sec
     gradient                   ...        0 min,  0.019 sec
 * total energy  :   -81.6600931 Eh     change       -0.4103814E-03 Eh
   gradient norm :     0.0103088 Eh/α   predicted     0.0000000E+00 (-100.00%)
   displ. norm   :     0.0936431 α      lambda       -0.3662766E-03
   maximum displ.:     0.0302340 α      in ANC's #3, #5, #14, ...

........................................................................
.............................. CYCLE   44 ..............................
........................................................................

 iter      E             dE          RMSdq      gap      omega  full diag
   1    -82.2442918 -0.822443E+02  0.289E-02    9.61       0.0  T
   2    -82.2442932 -0.135696E-05  0.176E-02    9.61       1.0  T
   3    -82.2442932 -0.265515E-07  0.338E-03    9.61       4.4  T
   4    -82.2442934 -0.200466E-06  0.103E-03    9.61      14.5  T
   5    -82.2442934 -0.602290E-08  0.439E-04    9.61      34.0  T
   6    -82.2442934 -0.552021E-09  0.179E-04    9.61      83.3  T
     SCC iter.                  ...        0 min,  0.034 sec
     gradient                   ...        0 min,  0.026 sec
 * total energy  :   -81.6603854 Eh     change       -0.2922749E-03 Eh
   gradient norm :     0.0049729 Eh/α   predicted    -0.1847838E-03 ( -36.78%)
   displ. norm   :     0.2306757 α      lambda       -0.5195377E-03
   maximum displ.:     0.0902496 α      in ANC's #3, #5, #14, ...

........................................................................
.............................. CYCLE   45 ..............................
........................................................................

 iter      E             dE          RMSdq      gap      omega  full diag
   1    -82.2403711 -0.822404E+02  0.624E-02    9.59       0.0  T
   2    -82.2403768 -0.566301E-05  0.383E-02    9.60       1.0  T
   3    -82.2403769 -0.979264E-07  0.721E-03    9.59       2.1  T
   4    -82.2403779 -0.990381E-06  0.214E-03    9.59       7.0  T
   5    -82.2403779 -0.282201E-07  0.924E-04    9.59      16.1  T
   6    -82.2403779 -0.193340E-08  0.360E-04    9.59      41.4  T
     SCC iter.                  ...        0 min,  0.034 sec
     gradient                   ...        0 min,  0.026 sec
 * total energy  :   -81.6607261 Eh     change       -0.3407157E-03 Eh
   gradient norm :     0.0071427 Eh/α   predicted    -0.2735967E-03 ( -19.70%)
   displ. norm   :     0.1854901 α      lambda       -0.2333666E-03
   maximum displ.:     0.0888541 α      in ANC's #3, #5, #14, ...

........................................................................
.............................. CYCLE   46 ..............................
........................................................................

 iter      E             dE          RMSdq      gap      omega  full diag
   1    -82.2394314 -0.822394E+02  0.470E-02    9.58       0.0  T
   2    -82.2394340 -0.252307E-05  0.288E-02    9.58       1.0  T
   3    -82.2394340 -0.623951E-07  0.495E-03    9.58       3.0  T
   4    -82.2394345 -0.526584E-06  0.155E-03    9.58       9.6  T
   5    -82.2394346 -0.117771E-07  0.657E-04    9.58      22.7  T
   6    -82.2394346 -0.834987E-09  0.226E-04    9.58      65.9  T
     SCC iter.                  ...        0 min,  0.037 sec
     gradient                   ...        0 min,  0.028 sec
 * total energy  :   -81.6609026 Eh     change       -0.1765206E-03 Eh
   gradient norm :     0.0106073 Eh/α   predicted    -0.1206954E-03 ( -31.63%)
   displ. norm   :     0.2608621 α      lambda       -0.3331917E-03
   maximum displ.:     0.1424860 α      in ANC's #3, #5, #2, ...

........................................................................
.............................. CYCLE   47 ..............................
........................................................................

 iter      E             dE          RMSdq      gap      omega  full diag
   1    -82.2404998 -0.822405E+02  0.621E-02    9.57       0.0  T
   2    -82.2405035 -0.369793E-05  0.379E-02    9.57       1.0  T
   3    -82.2405036 -0.824586E-07  0.603E-03    9.56       2.5  T
   4    -82.2405044 -0.829265E-06  0.196E-03    9.57       7.6  T
   5    -82.2405044 -0.164505E-07  0.801E-04    9.57      18.6  T
   6    -82.2405044 -0.145926E-08  0.276E-04    9.57      53.9  T
     SCC iter.                  ...        0 min,  0.039 sec
     gradient                   ...        0 min,  0.027 sec
 * total energy  :   -81.6611362 Eh     change       -0.2335827E-03 Eh
   gradient norm :     0.0112212 Eh/α   predicted    -0.1779428E-03 ( -23.82%)
   displ. norm   :     0.2022217 α      lambda       -0.2956792E-03
   maximum displ.:     0.1158130 α      in ANC's #3, #5, #2, ...

........................................................................
.............................. CYCLE   48 ..............................
........................................................................

 iter      E             dE          RMSdq      gap      omega  full diag
   1    -82.2440187 -0.822440E+02  0.435E-02    9.56       0.0  T
   2    -82.2440205 -0.183552E-05  0.262E-02    9.56       1.0  T
   3    -82.2440205  0.981117E-09  0.431E-03    9.56       3.5  T
   4    -82.2440209 -0.405032E-06  0.134E-03    9.56      11.2  T
   5    -82.2440209 -0.731332E-08  0.540E-04    9.56      27.6  T
   6    -82.2440209 -0.117127E-08  0.216E-04    9.56      68.9  T
     SCC iter.                  ...        0 min,  0.048 sec
     gradient                   ...        0 min,  0.038 sec
 * total energy  :   -81.6613310 Eh     change       -0.1947408E-03 Eh
   gradient norm :     0.0048638 Eh/α   predicted    -0.1538895E-03 ( -20.98%)
   displ. norm   :     0.2008564 α      lambda       -0.1523388E-03
   maximum displ.:     0.1064872 α      in ANC's #5, #3, #2, ...

........................................................................
.............................. CYCLE   49 ..............................
........................................................................

 iter      E             dE          RMSdq      gap      omega  full diag
   1    -82.2445783 -0.822446E+02  0.440E-02    9.54       0.0  T
   2    -82.2445802 -0.190632E-05  0.268E-02    9.54       1.0  T
   3    -82.2445801  0.625377E-07  0.471E-03    9.54       3.2  T
   4    -82.2445807 -0.542929E-06  0.132E-03    9.54      11.3  T
   5    -82.2445807 -0.432836E-08  0.541E-04    9.54      27.6  T
   6    -82.2445807 -0.110740E-08  0.174E-04    9.54      85.6  T
     SCC iter.                  ...        0 min,  0.044 sec
     gradient                   ...        0 min,  0.018 sec
 * total energy  :   -81.6614370 Eh     change       -0.1060483E-03 Eh
   gradient norm :     0.0067786 Eh/α   predicted    -0.7924417E-04 ( -25.28%)
   displ. norm   :     0.2002353 α      lambda       -0.1833647E-03
   maximum displ.:     0.1093495 α      in ANC's #5, #2, #3, ...

........................................................................
.............................. CYCLE   50 ..............................
........................................................................

 iter      E             dE          RMSdq      gap      omega  full diag
   1    -82.2458309 -0.822458E+02  0.393E-02    9.53       0.0  T
   2    -82.2458324 -0.151291E-05  0.238E-02    9.53       1.0  T
   3    -82.2458323  0.827247E-07  0.425E-03    9.53       3.5  T
   4    -82.2458328 -0.415844E-06  0.108E-03    9.53      13.8  T
   5    -82.2458328 -0.276279E-08  0.463E-04    9.53      32.2  T
   6    -82.2458328 -0.929717E-09  0.145E-04    9.53     102.8  T
     SCC iter.                  ...        0 min,  0.037 sec
     gradient                   ...        0 min,  0.024 sec
 * total energy  :   -81.6615557 Eh     change       -0.1186738E-03 Eh
   gradient norm :     0.0051001 Eh/α   predicted    -0.9536001E-04 ( -19.65%)
   displ. norm   :     0.2251776 α      lambda       -0.1367055E-03
   maximum displ.:     0.1285811 α      in ANC's #2, #5, #31, ...

........................................................................
.............................. CYCLE   51 ..............................
........................................................................

 iter      E             dE          RMSdq      gap      omega  full diag
   1    -82.2440851 -0.822441E+02  0.482E-02    9.52       0.0  T
   2    -82.2440876 -0.245995E-05  0.293E-02    9.52       1.0  T
   3    -82.2440876 -0.177859E-07  0.498E-03    9.52       3.0  T
   4    -82.2440882 -0.555586E-06  0.147E-03    9.52      10.1  T
   5    -82.2440882 -0.718296E-08  0.648E-04    9.52      23.0  T
   6    -82.2440882 -0.930825E-09  0.187E-04    9.52      79.5  T
     SCC iter.                  ...        0 min,  0.033 sec
     gradient                   ...        0 min,  0.026 sec
 * total energy  :   -81.6616425 Eh     change       -0.8681962E-04 Eh
   gradient norm :     0.0064597 Eh/α   predicted    -0.7181923E-04 ( -17.28%)
   displ. norm   :     0.1757171 α      lambda       -0.1397765E-03
   maximum displ.:     0.0996064 α      in ANC's #2, #5, #6, ...

........................................................................
.............................. CYCLE   52 ..............................
........................................................................

 iter      E             dE          RMSdq      gap      omega  full diag
   1    -82.2437057 -0.822437E+02  0.309E-02    9.52       0.0  T
   2    -82.2437067 -0.995916E-06  0.188E-02    9.52       1.0  T
   3    -82.2437067  0.643556E-08  0.309E-03    9.52       4.8  T
   4    -82.2437069 -0.214621E-06  0.962E-04    9.52      15.5  T
   5    -82.2437069 -0.497451E-08  0.407E-04    9.52      36.6  T
     SCC iter.                  ...        0 min,  0.039 sec
     gradient                   ...        0 min,  0.030 sec
 * total energy  :   -81.6617327 Eh     change       -0.9018224E-04 Eh
   gradient norm :     0.0034124 Eh/α   predicted    -0.7206039E-04 ( -20.09%)
   displ. norm   :     0.1418545 α      lambda       -0.6543578E-04
   maximum displ.:     0.0844709 α      in ANC's #2, #5, #3, ...

........................................................................
.............................. CYCLE   53 ..............................
........................................................................

 iter      E             dE          RMSdq      gap      omega  full diag
   1    -82.2434853 -0.822435E+02  0.248E-02    9.53       0.0  T
   2    -82.2434861 -0.754107E-06  0.151E-02    9.53       1.0  T
   3    -82.2434861  0.473794E-08  0.293E-03    9.53       5.1  T
   4    -82.2434862 -0.171981E-06  0.792E-04    9.53      18.8  T
   5    -82.2434862 -0.305340E-08  0.321E-04    9.53      46.4  T
     SCC iter.                  ...        0 min,  0.027 sec
     gradient                   ...        0 min,  0.027 sec
 * total energy  :   -81.6617817 Eh     change       -0.4900531E-04 Eh
   gradient norm :     0.0030788 Eh/α   predicted    -0.3337771E-04 ( -31.89%)
   displ. norm   :     0.1362337 α      lambda       -0.6335499E-04
   maximum displ.:     0.0751349 α      in ANC's #2, #3, #5, ...

........................................................................
.............................. CYCLE   54 ..............................
........................................................................

 iter      E             dE          RMSdq      gap      omega  full diag
   1    -82.2441468 -0.822441E+02  0.231E-02    9.54       0.0  T
   2    -82.2441474 -0.608280E-06  0.139E-02    9.54       1.1  T
   3    -82.2441474  0.205760E-07  0.281E-03    9.54       5.3  T
   4    -82.2441475 -0.157552E-06  0.721E-04    9.54      20.7  T
   5    -82.2441475 -0.232889E-08  0.269E-04    9.54      55.3  T
     SCC iter.                  ...        0 min,  0.031 sec
     gradient                   ...        0 min,  0.020 sec
 * total energy  :   -81.6618248 Eh     change       -0.4309586E-04 Eh
   gradient norm :     0.0023990 Eh/α   predicted    -0.3226877E-04 ( -25.12%)
   displ. norm   :     0.1218123 α      lambda       -0.3269986E-04
   maximum displ.:     0.0686892 α      in ANC's #2, #5, #3, ...

........................................................................
.............................. CYCLE   55 ..............................
........................................................................

 iter      E             dE          RMSdq      gap      omega  full diag
   1    -82.2443187 -0.822443E+02  0.207E-02    9.54       0.0  T
   2    -82.2443192 -0.484915E-06  0.125E-02    9.55       1.2  T
   3    -82.2443192 -0.269761E-07  0.222E-03    9.55       6.7  T
   4    -82.2443193 -0.905855E-07  0.703E-04    9.55      21.2  T
   5    -82.2443193 -0.282553E-08  0.265E-04    9.55      56.3  T
     SCC iter.                  ...        0 min,  0.030 sec
     gradient                   ...        0 min,  0.023 sec
 * total energy  :   -81.6618475 Eh     change       -0.2273470E-04 Eh
   gradient norm :     0.0025834 Eh/α   predicted    -0.1659344E-04 ( -27.01%)
   displ. norm   :     0.0923555 α      lambda       -0.2765806E-04
   maximum displ.:     0.0466047 α      in ANC's #3, #1, #2, ...

........................................................................
.............................. CYCLE   56 ..............................
........................................................................

 iter      E             dE          RMSdq      gap      omega  full diag
   1    -82.2449288 -0.822449E+02  0.155E-02    9.55       0.0  T
   2    -82.2449291 -0.326600E-06  0.936E-03    9.55       1.6  T
   3    -82.2449291 -0.133866E-07  0.167E-03    9.55       8.9  T
   4    -82.2449291 -0.435632E-07  0.503E-04    9.55      29.6  T
   5    -82.2449291 -0.174960E-08  0.219E-04    9.55      68.0  T
     SCC iter.                  ...        0 min,  0.029 sec
     gradient                   ...        0 min,  0.023 sec
 * total energy  :   -81.6618655 Eh     change       -0.1799860E-04 Eh
   gradient norm :     0.0018028 Eh/α   predicted    -0.1395020E-04 ( -22.49%)
   displ. norm   :     0.1329145 α      lambda       -0.1677606E-04
   maximum displ.:     0.0671950 α      in ANC's #1, #2, #5, ...

........................................................................
.............................. CYCLE   57 ..............................
........................................................................

 iter      E             dE          RMSdq      gap      omega  full diag
   1    -82.2445673 -0.822446E+02  0.214E-02    9.54       0.0  T
   2    -82.2445680 -0.786104E-06  0.130E-02    9.55       1.1  T
   3    -82.2445681 -0.195023E-07  0.285E-03    9.55       5.2  T
   4    -82.2445682 -0.136936E-06  0.826E-04    9.55      18.0  T
   5    -82.2445682 -0.533942E-08  0.339E-04    9.55      43.9  T
     SCC iter.                  ...        0 min,  0.028 sec
     gradient                   ...        0 min,  0.020 sec
 * total energy  :   -81.6618792 Eh     change       -0.1371569E-04 Eh
   gradient norm :     0.0019510 Eh/α   predicted    -0.8468724E-05 ( -38.26%)
   displ. norm   :     0.0422449 α      lambda       -0.8868285E-05
   maximum displ.:     0.0258421 α      in ANC's #1, #3, #4, ...

........................................................................
.............................. CYCLE   58 ..............................
........................................................................

 iter      E             dE          RMSdq      gap      omega  full diag
   1    -82.2447695 -0.822448E+02  0.965E-03    9.54       0.0  T
   2    -82.2447696 -0.762216E-07  0.583E-03    9.54       2.6  T
   3    -82.2447696 -0.212030E-08  0.902E-04    9.54      16.5  T
   4    -82.2447696 -0.174561E-07  0.288E-04    9.54      51.7  T
     SCC iter.                  ...        0 min,  0.026 sec
     gradient                   ...        0 min,  0.026 sec
 * total energy  :   -81.6618869 Eh     change       -0.7681573E-05 Eh
   gradient norm :     0.0013137 Eh/α   predicted    -0.4440730E-05 ( -42.19%)
   displ. norm   :     0.0347850 α      lambda       -0.5425769E-05
   maximum displ.:     0.0261249 α      in ANC's #1, #4, #20, ...

........................................................................
.............................. CYCLE   59 ..............................
........................................................................

 iter      E             dE          RMSdq      gap      omega  full diag
   1    -82.2445645 -0.822446E+02  0.678E-03    9.54       0.0  T
   2    -82.2445646 -0.709663E-07  0.410E-03    9.54       3.6  T
   3    -82.2445646 -0.183411E-08  0.816E-04    9.54      18.3  T
   4    -82.2445646 -0.107295E-07  0.236E-04    9.54      63.2  T
     SCC iter.                  ...        0 min,  0.024 sec
     gradient                   ...        0 min,  0.021 sec
 * total energy  :   -81.6618925 Eh     change       -0.5587720E-05 Eh
   gradient norm :     0.0008624 Eh/α   predicted    -0.2715325E-05 ( -51.41%)
   displ. norm   :     0.0459957 α      lambda       -0.3900641E-05
   maximum displ.:     0.0331944 α      in ANC's #1, #3, #5, ...

........................................................................
.............................. CYCLE   60 ..............................
........................................................................

 iter      E             dE          RMSdq      gap      omega  full diag
   1    -82.2446247 -0.822446E+02  0.908E-03    9.54       0.0  T
   2    -82.2446248 -0.375817E-07  0.548E-03    9.54       2.7  T
   3    -82.2446248 -0.719574E-08  0.549E-04    9.54      27.2  T
   4    -82.2446248 -0.541671E-08  0.252E-04    9.54      59.2  T
     SCC iter.                  ...        0 min,  0.024 sec
     gradient                   ...        0 min,  0.017 sec
 * total energy  :   -81.6618970 Eh     change       -0.4477904E-05 Eh
   gradient norm :     0.0006344 Eh/α   predicted    -0.1954918E-05 ( -56.34%)
   displ. norm   :     0.0450768 α      lambda       -0.2869690E-05
   maximum displ.:     0.0333985 α      in ANC's #1, #3, #5, ...

   *** GEOMETRY OPTIMIZATION CONVERGED AFTER 60 ITERATIONS ***

------------------------------------------------------------------------
 total energy gain   :        -0.0273448 Eh      -17.1591 kcal/mol
 total RMSD          :         1.6851651 a0        0.8918 Å
 total power (kW/mol):        -1.1965618 (step)  -16.1386 (real)
------------------------------------------------------------------------

 ANCopt (total)                0 d,  0 h,  0 min,  4.449 sec
 optimizer setup                ...        0 min,  0.004 sec (  0.085%)
 model hessian                  ...        0 min,  0.113 sec (  2.539%)
 ANC generation                 ...        0 min,  0.026 sec (  0.577%)
 coordinate transformation      ...        0 min,  0.006 sec (  0.128%)
 single point calculation       ...        0 min,  4.238 sec ( 95.266%)
 optimization log               ...        0 min,  0.008 sec (  0.174%)
 hessian update                 ...        0 min,  0.003 sec (  0.069%)
 rational function              ...        0 min,  0.024 sec (  0.541%)

================
 final structure:
================
45
 xtb: 6.7.1 (unknown)
O            3.96032107189126       -4.88669750057868        1.81600392969634
C            3.27587211556837       -3.78924618896402        2.35509195206927
C            2.20315585026997       -3.19979052089691        1.42080479468295
O            2.76542438777361       -2.49101640486950        0.30907285554227
C            2.25668108408856       -2.97589261047651       -0.90575648580176
C            2.03606433396608       -1.79722350690986       -1.85737192054520
O            1.37326904404688       -2.28578450062697       -3.00401786602384
O            3.09286065367936       -3.98364925285548       -1.43316529121548
C            4.09415141574801       -3.70102046703763       -2.38016658298225
O            5.00226233591092       -2.71539150877226       -2.00711300989204
C            5.66925471193541       -2.95721083480425       -0.76861885339031
C            6.72902439117268       -1.85654611840189       -0.63845956339523
O            7.62307906568032       -1.86707533096575       -1.71679224697925
C            6.32568597413402       -4.34158606445503       -0.70021970977118
O            6.60575029880156       -4.57803671832866        0.66401363011836
C            5.42724521049786       -5.45736411738453       -1.24783723730430
O            6.22132513801977       -6.61605291316302       -1.37957681139614
C            4.79447804710212       -5.05578745600137       -2.58663808423022
O            3.89922177098929       -6.03535884203887       -3.03407782850459
C            0.93608634612787       -3.69674482128920       -0.54616941898696
O            0.57336901501208       -4.69306809449513       -1.45114957265839
C            1.26898100525210       -4.26619256475225        0.83924094977061
O            0.15585464398949       -4.42406084959445        1.67106289000269
H            4.81692247824839       -4.61190370324777        1.44804066846368
H            3.96064079859260       -2.98761919457553        2.64820629905971
H            2.74424735028732       -4.14708786905893        3.24336024641011
H            1.60474101517673       -2.48521645142736        2.00132619660129
H            1.42448625386853       -1.05821660142088       -1.32578428936050
H            3.00280092633135       -1.34484265943125       -2.10321302582831
H            1.21669073255747       -1.55203732061849       -3.60824123675113
H            3.65184170602352       -3.34949396730458       -3.32432226792759
H            4.94787435587199       -2.86363909184784        0.05111656123625
H            6.22027002791899       -0.88607807033588       -0.56269168927952
H            7.31616016582642       -2.03071673601513        0.26428402979595
H            7.09615855798491       -1.84348512200264       -2.52510214300699
H            7.25762741005531       -4.33142660117473       -1.28529810141386
H            6.97738079638026       -5.46716796912636        0.72766382556611
H            4.61169150092778       -5.64297260666597       -0.53028597580756
H            5.74000551623680       -7.23437352775503       -1.94352661439277
H            5.56922156626322       -4.95788465566035       -3.35437156048923
H            3.10758189119110       -5.98061719471381       -2.47935757891800
H            0.13716938172406       -2.94540223041982       -0.43742051993777
H            0.61832022026775       -4.31296886837643       -2.33877230874627
H            1.81719376380388       -5.20887785135269        0.70973253941217
H           -0.41117432719860       -5.10011451981612        1.28251642650706

 Bond Distances (Angstroems)
 ---------------------------
O1-C2=1.4012         O1-H24=0.9719        C2-O1=1.4012         C2-C3=1.5398         C2-H25=1.0943        C2-H26=1.0953        
C3-C2=1.5398         C3-O4=1.4333         C3-C22=1.5324        C3-H27=1.0981        O4-C3=1.4333         O4-C5=1.4035         
C5-O4=1.4035         C5-C6=1.5309         C5-O8=1.4117         C5-C20=1.5469        C6-C5=1.5309         C6-O7=1.4117         
C6-H28=1.0967        C6-H29=1.0953        O7-C6=1.4117         O7-H30=0.9633        O8-C5=1.4117         O8-C9=1.4069         
C9-O8=1.4069         C9-O10=1.3912        C9-C18=1.5390        C9-H31=1.1003        O10-C9=1.3912        O10-C11=1.4273       
C11-O10=1.4273       C11-C12=1.5335       C11-C14=1.5336       C11-H32=1.0960       C12-C11=1.5335       C12-O13=1.4008       
C12-H33=1.0984       C12-H34=1.0909       O13-C12=1.4008       O13-H35=0.9652       C14-C11=1.5336       C14-O15=1.4126       
C14-C16=1.5336       C14-H36=1.1004       O15-C14=1.4126       O15-H37=0.9658       C16-C14=1.5336       C16-O17=1.4108       
C16-C18=1.5343       C16-H38=1.1020       O17-C16=1.4108       O17-H39=0.9654       C18-C9=1.5390        C18-C16=1.5343       
C18-O19=1.4004       C18-H40=1.0951       O19-C18=1.4004       O19-H41=0.9682       C20-C5=1.5469        C20-O21=1.3940       
C20-C22=1.5344       C20-H42=1.1021       O21-C20=1.3940       O21-H43=0.9666       C22-C3=1.5324        C22-C20=1.5344       
C22-O23=1.3985       C22-H44=1.0982       O23-C22=1.3985       O23-H45=0.9641       H24-O1=0.9719        H25-C2=1.0943        
H26-C2=1.0953        H27-C3=1.0981        H28-C6=1.0967        H29-C6=1.0953        H30-O7=0.9633        H31-C9=1.1003        
H32-C11=1.0960       H33-C12=1.0984       H34-C12=1.0909       H35-O13=0.9652       H36-C14=1.1004       H37-O15=0.9658       
H38-C16=1.1020       H39-O17=0.9654       H40-C18=1.0951       H41-O19=0.9682       H42-C20=1.1021       H43-O21=0.9666       
H44-C22=1.0982       H45-O23=0.9641       
 C  H  Rav=1.0973 sigma=0.0031  Rmin=1.0909  Rmax=1.1021    14
 C  C  Rav=1.5358 sigma=0.0045  Rmin=1.5309  Rmax=1.5469    10
 O  H  Rav=0.9663 sigma=0.0025  Rmin=0.9633  Rmax=0.9719     8
 O  C  Rav=1.4074 sigma=0.0114  Rmin=1.3912  Rmax=1.4333    14

 selected bond angles (degree)
 --------------------
H24-O1-C2=110.78               C3-C2-O1=114.00                H25-C2-O1=111.79               H25-C2-C3=108.54               
H26-C2-O1=107.05               H26-C2-C3=106.20               H26-C2-H25=109.02              O4-C3-C2=112.74                
C22-C3-C2=112.87               C22-C3-O4=106.79               H27-C3-C2=107.94               H27-C3-O4=107.58               
H27-C3-C22=108.74              C5-O4-C3=111.00                C6-C5-O4=108.92                O8-C5-O4=110.81                
O8-C5-C6=113.75                C20-C5-O4=105.62               C20-C5-C6=112.35               C20-C5-O8=105.06               
O7-C6-C5=107.83                H28-C6-C5=107.33               H28-C6-O7=111.41               H29-C6-C5=109.29               
H29-C6-O7=112.03               H29-C6-H28=108.83              H30-O7-C6=108.79               C9-O8-C5=121.98                
O10-C9-O8=115.24               C18-C9-O8=103.73               C18-C9-O10=111.26              H31-C9-O8=110.84               
H31-C9-O10=105.44              H31-C9-C18=110.43              C11-O10-C9=114.69              

 selected dihedral angles (degree)
 ---------------------------------
C3-C2-O1-H24= 98.88           H25-C2-O1-H24=335.32          H26-C2-O1-H24=216.00          O4-C3-C2-O1=287.97            
O4-C3-C2-H25= 53.27           O4-C3-C2-H26=170.36           C22-C3-C2-O1= 49.09           C22-C3-C2-H25=174.38          
C22-C3-C2-H26=291.47          H27-C3-C2-O1=169.29           H27-C3-C2-H25=294.58          H27-C3-C2-H26= 51.67          
C5-O4-C3-C2=126.07            C5-O4-C3-C22=  1.56           C5-O4-C3-H27=244.96           C6-C5-O4-C3=141.39            
O8-C5-O4-C3=267.25            C20-C5-O4-C3= 20.51           O7-C6-C5-O4=187.13            O7-C6-C5-O8= 62.99            
O7-C6-C5-C20=303.79           H28-C6-C5-O4=307.27           H28-C6-C5-O8=183.13           H28-C6-C5-C20= 63.93          
H29-C6-C5-O4= 65.13           H29-C6-C5-O8=300.99           H29-C6-C5-C20=181.79          H30-O7-C6-C5=179.25           
H30-O7-C6-H28= 61.72          H30-O7-C6-H29=299.55          C9-O8-C5-O4=265.15            C9-O8-C5-C6= 28.26            
C9-O8-C5-C20=151.53           O10-C9-O8-C5= 54.54           C18-C9-O8-C5=176.40           H31-C9-O8-C5=294.92           
C11-O10-C9-O8= 55.66          C11-O10-C9-C18=297.95         C11-O10-C9-H31=178.21         
           -------------------------------------------------
          |                Final Singlepoint                |
           -------------------------------------------------

          ...................................................
          :                      SETUP                      :
          :.................................................:
          :  # basis functions                 114          :
          :  # atomic orbitals                 114          :
          :  # shells                           68          :
          :  # electrons                       136          :
          :  max. iterations                   250          :
          :  Hamiltonian                  GFN2-xTB          :
          :  restarted?                      false          :
          :  GBSA solvation                  false          :
          :  PC potential                    false          :
          :  electronic temp.          300.0000000     K    :
          :  accuracy                    1.0000000          :
          :  -> integral cutoff          0.2500000E+02      :
          :  -> integral neglect         0.1000000E-07      :
          :  -> SCF convergence          0.1000000E-05 Eh   :
          :  -> wf. convergence          0.1000000E-03 e    :
          :  Broyden damping             0.4000000          :
          :  net charge                          0          :
          :  unpaired electrons                  0          :
          ...................................................

 iter      E             dE          RMSdq      gap      omega  full diag
   1    -82.2446248 -0.822446E+02  0.958E-05    9.54       0.0  T
   2    -82.2446248 -0.433005E-10  0.594E-05    9.54     250.9  T
   3    -82.2446248 -0.599698E-11  0.289E-05    9.54     516.4  T

   *** convergence criteria satisfied after 3 iterations ***

         #    Occupation            Energy/Eh            Energy/eV
      -------------------------------------------------------------
         1        2.0000           -0.7414157             -20.1749
       ...           ...                  ...                  ...
        62        2.0000           -0.4342788             -11.8173
        63        2.0000           -0.4255930             -11.5810
        64        2.0000           -0.4220946             -11.4858
        65        2.0000           -0.4189590             -11.4005
        66        2.0000           -0.4172273             -11.3533
        67        2.0000           -0.4092180             -11.1354
        68        2.0000           -0.4034314             -10.9779 (HOMO)
        69                         -0.0528745              -1.4388 (LUMO)
        70                         -0.0406092              -1.1050
        71                         -0.0144864              -0.3942
        72                          0.0029344               0.0798
        73                          0.0121159               0.3297
       ...                                ...                  ...
       114                          0.3214669               8.7476
      -------------------------------------------------------------
                  HL-Gap            0.3505568 Eh            9.5391 eV
             Fermi-level           -0.2281529 Eh           -6.2084 eV

 SCC (total)                   0 d,  0 h,  0 min,  0.052 sec
 SCC setup                      ...        0 min,  0.000 sec (  0.231%)
 Dispersion                     ...        0 min,  0.000 sec (  0.366%)
 classical contributions        ...        0 min,  0.000 sec (  0.099%)
 integral evaluation            ...        0 min,  0.012 sec ( 23.023%)
 iterations                     ...        0 min,  0.016 sec ( 30.113%)
 molecular gradient             ...        0 min,  0.023 sec ( 44.833%)
 printout                       ...        0 min,  0.001 sec (  1.307%)

         :::::::::::::::::::::::::::::::::::::::::::::::::::::
         ::                     SUMMARY                     ::
         :::::::::::::::::::::::::::::::::::::::::::::::::::::
         :: total energy             -81.661896992898 Eh    ::
         :: gradient norm              0.000634334784 Eh/a0 ::
         :: HOMO-LUMO gap              9.539136371492 eV    ::
         ::.................................................::
         :: SCC energy               -82.242970410787 Eh    ::
         :: -> isotropic ES            0.245566017237 Eh    ::
         :: -> anisotropic ES         -0.014965786956 Eh    ::
         :: -> anisotropic XC         -0.018273578755 Eh    ::
         :: -> dispersion             -0.047189273131 Eh    ::
         :: repulsion energy           0.581073417888 Eh    ::
         :: add. restraining           0.000000000000 Eh    ::
         :: total charge              -0.000000000000 e     ::
         :::::::::::::::::::::::::::::::::::::::::::::::::::::

           -------------------------------------------------
          |                Property Printout                |
           -------------------------------------------------

    * Orbital Energies and Occupations

         #    Occupation            Energy/Eh            Energy/eV
      -------------------------------------------------------------
         1        2.0000           -0.7414157             -20.1749
       ...           ...                  ...                  ...
        56        2.0000           -0.4629364             -12.5971
        57        2.0000           -0.4538450             -12.3498
        58        2.0000           -0.4512111             -12.2781
        59        2.0000           -0.4480216             -12.1913
        60        2.0000           -0.4459392             -12.1346
        61        2.0000           -0.4352629             -11.8441
        62        2.0000           -0.4342788             -11.8173
        63        2.0000           -0.4255930             -11.5810
        64        2.0000           -0.4220946             -11.4858
        65        2.0000           -0.4189590             -11.4005
        66        2.0000           -0.4172273             -11.3533
        67        2.0000           -0.4092180             -11.1354
        68        2.0000           -0.4034314             -10.9779 (HOMO)
        69                         -0.0528745              -1.4388 (LUMO)
        70                         -0.0406092              -1.1050
        71                         -0.0144864              -0.3942
        72                          0.0029344               0.0798
        73                          0.0121159               0.3297
        74                          0.0160497               0.4367
        75                          0.0289453               0.7876
        76                          0.0338843               0.9220
        77                          0.0393563               1.0709
        78                          0.0461895               1.2569
        79                          0.0514964               1.4013
       ...                                ...                  ...
       114                          0.3214669               8.7476
      -------------------------------------------------------------
                  HL-Gap            0.3505568 Eh            9.5391 eV
             Fermi-level           -0.2281529 Eh           -6.2084 eV

     #   Z          covCN         q      C6AA      α(0)
     1   8          1.655    -0.451    21.871     6.313
     2   6          3.674     0.072    19.606     6.345
     3   6          3.774     0.093    19.064     6.221
     4   8          1.701    -0.349    19.869     6.018
     5   6          3.712     0.263    16.697     5.839
     6   6          3.674     0.065    19.705     6.361
     7   8          1.656    -0.449    21.817     6.305
     8   8          1.704    -0.346    19.818     6.011
     9   6          3.635     0.239    17.234     5.974
    10   8          1.701    -0.342    19.746     5.999
    11   6          3.747     0.091    19.140     6.240
    12   6          3.677     0.070    19.625     6.347
    13   8          1.656    -0.429    21.417     6.247
    14   6          3.728     0.094    19.113     6.242
    15   8          1.656    -0.450    21.841     6.309
    16   6          3.729     0.088    19.219     6.258
    17   8          1.656    -0.451    21.870     6.313
    18   6          3.728     0.085    19.255     6.265
    19   8          1.656    -0.439    21.629     6.278
    20   6          3.744     0.098    19.027     6.222
    21   8          1.656    -0.436    21.569     6.269
    22   6          3.746     0.104    18.929     6.206
    23   8          1.657    -0.436    21.566     6.269
    24   1          0.804     0.319     0.666     1.282
    25   1          0.924     0.037     2.489     2.467
    26   1          0.924     0.060     2.203     2.321
    27   1          0.923     0.053     2.281     2.362
    28   1          0.924     0.039     2.467     2.456
    29   1          0.924     0.051     2.304     2.374
    30   1          0.805     0.308     0.698     1.312
    31   1          0.923     0.046     2.370     2.408
    32   1          0.924     0.063     2.166     2.301
    33   1          0.923     0.037     2.486     2.466
    34   1          0.924     0.071     2.072     2.251
    35   1          0.805     0.302     0.716     1.329
    36   1          0.923     0.055     2.261     2.352
    37   1          0.805     0.323     0.656     1.272
    38   1          0.923     0.052     2.291     2.367
    39   1          0.805     0.311     0.690     1.304
    40   1          0.924     0.056     2.246     2.344
    41   1          0.805     0.317     0.671     1.287
    42   1          0.923     0.027     2.623     2.533
    43   1          0.805     0.319     0.667     1.283
    44   1          0.923     0.060     2.203     2.321
    45   1          0.805     0.311     0.688     1.303

 Mol. C6AA /au·bohr⁶  :      16985.807301
 Mol. C8AA /au·bohr⁸  :     364217.816496
 Mol. α(0) /au        :        186.548669


Wiberg/Mayer (AO) data.
largest (>0.10) Wiberg bond orders for each atom

 ---------------------------------------------------------------------------
     #   Z sym  total        # sym  WBO       # sym  WBO       # sym  WBO
 ---------------------------------------------------------------------------
     1   8      1.961 --     2      1.019    24      0.853
     2   6      3.965 --     1      1.019     3      0.974    25      0.972
                            26      0.966
     3   6      3.936 --    22      0.975     2      0.974    27      0.959
                             4      0.945
     4   8      2.080 --     5      0.974     3      0.945
     5   6      3.922 --     4      0.974     6      0.967     8      0.952
                            20      0.936
     6   6      3.955 --     7      0.998    28      0.968     5      0.967
                            29      0.964
     7   8      1.951 --     6      0.998    30      0.891
     8   8      2.104 --     9      0.960     5      0.952
     9   6      3.923 --    10      0.988     8      0.960    18      0.948
                            31      0.946
    10   8      2.090 --     9      0.988    11      0.948
    11   6      3.935 --    12      0.978    14      0.974    32      0.948
                            10      0.948
    12   6      3.961 --    13      1.015    11      0.978    34      0.968
                            33      0.967
    13   8      1.969 --    12      1.015    35      0.891
    14   6      3.955 --    15      0.989    11      0.974    16      0.972
                            36      0.955
    15   8      1.979 --    14      0.989    37      0.879
    16   6      3.958 --    17      0.993    14      0.972    18      0.964
                            38      0.949
    17   8      1.951 --    16      0.993    39      0.884
    18   6      3.962 --    19      1.009    16      0.964    40      0.960
                             9      0.948
    19   8      1.972 --    18      1.009    41      0.878
    20   6      3.963 --    21      1.014    22      0.963    42      0.955
                             5      0.936
    21   8      1.966 --    20      1.014    43      0.875
    22   6      3.959 --    23      1.006     3      0.975    20      0.963
                            44      0.954
    23   8      1.965 --    22      1.006    45      0.888
    24   1      0.898 --     1      0.853
    25   1      0.998 --     2      0.972
    26   1      0.996 --     2      0.966
    27   1      0.997 --     3      0.959
    28   1      0.998 --     6      0.968
    29   1      0.997 --     6      0.964
    30   1      0.905 --     7      0.891
    31   1      0.997 --     9      0.946
    32   1      0.996 --    11      0.948
    33   1      0.998 --    12      0.967
    34   1      0.994 --    12      0.968
    35   1      0.909 --    13      0.891
    36   1      0.997 --    14      0.955
    37   1      0.896 --    15      0.879
    38   1      0.997 --    16      0.949
    39   1      0.903 --    17      0.884
    40   1      0.996 --    18      0.960
    41   1      0.899 --    19      0.878
    42   1      0.999 --    20      0.955
    43   1      0.898 --    21      0.875
    44   1      0.996 --    22      0.954
    45   1      0.903 --    23      0.888
 ---------------------------------------------------------------------------

Topologies differ in total number of bonds
Writing topology from bond orders to xtbtopo.mol

molecular dipole:
                 x           y           z       tot (Debye)
 q only:       -0.666       0.591      -0.534
   full:       -1.091       1.025      -1.053       4.652
molecular quadrupole (traceless):
                xx          xy          yy          xz          yz          zz
 q only:      -11.639       7.422      -1.005       2.063       0.035      12.643
  q+dip:      -17.518      11.344      -1.047      -0.900       1.291      18.565
   full:      -18.325      12.144      -1.307      -0.383       1.989      19.632

           -------------------------------------------------
          |                Geometry Summary                 |
           -------------------------------------------------

      molecular mass/u    :      342.2969814
   center of mass at/Å    :        3.7543806      -3.8322591      -0.7328828
  moments of inertia/u·Å² :        0.1443537E+04   0.2316970E+04   0.2511064E+04
rotational constants/cm⁻¹ :        0.1167800E-01   0.7275724E-02   0.6713341E-02

 * 45 selected distances

     #   Z          #   Z                                           value/Å
     1   8          2   6                                         1.4012445
     2   6          3   6                                         1.5398283 (max)
     3   6          4   8                                         1.4333370
     4   8          5   6                                         1.4034726
     5   6          6   6                                         1.5308511
     6   6          7   8                                         1.4116610
     5   6          8   8                                         1.4117118
     8   8          9   6                                         1.4068667
     9   6         10   8                                         1.3911503
    10   8         11   6                                         1.4273134
    11   6         12   6                                         1.5334655
    12   6         13   8                                         1.4008020
    11   6         14   6                                         1.5336478
    14   6         15   8                                         1.4126139
    14   6         16   6                                         1.5336368
    16   6         17   8                                         1.4108431
     9   6         18   6                                         1.5389873
    16   6         18   6                                         1.5342901
Note: The following floating-point exceptions are signalling: IEEE_UNDERFLOW_FLAG
normal termination of xtb
    18   6         19   8                                         1.4004451
    20   6         21   8                                         1.3939919
     3   6         22   6                                         1.5323553
    20   6         22   6                                         1.5344223
    22   6         23   8                                         1.3985352
     1   8         24   1                                         0.9719438
     2   6         25   1                                         1.0942716
     2   6         26   1                                         1.0953065
     3   6         27   1                                         1.0980536
     6   6         28   1                                         1.0966971
     6   6         29   1                                         1.0952927
     7   8         30   1                                         0.9633212 (min)
     9   6         31   1                                         1.1002904
    11   6         32   1                                         1.0959524
    12   6         33   1                                         1.0983534
    12   6         34   1                                         1.0908758
    13   8         35   1                                         0.9651771
    14   6         36   1                                         1.1004249
    15   8         37   1                                         0.9657718
    16   6         38   1                                         1.1020247
    17   8         39   1                                         0.9654162
    18   6         40   1                                         1.0950924
    19   8         41   1                                         0.9681968
    20   6         42   1                                         1.1020937
    21   8         43   1                                         0.9666283
    22   6         44   1                                         1.0981646
    23   8         45   1                                         0.9641260

 * 4 distinct bonds (by element types)

   Z      Z             #   av. dist./Å        max./Å        min./Å
   1 H    6 C          14     1.0973496     1.1020937     1.0908758
   6 C    6 C           9     1.5346094     1.5398283     1.5308511
   1 H    8 O           8     0.9663227     0.9719438     0.9633212
   6 C    8 O          14     1.4074278     1.4333370     1.3911503


optimized geometry written to: xtbopt.xyz


           -------------------------------------------------
          | TOTAL ENERGY              -81.661896992898 Eh   |
          | GRADIENT NORM               0.000634334784 Eh/α |
          | HOMO-LUMO GAP               9.539136371492 eV   |
           -------------------------------------------------

------------------------------------------------------------------------
 * finished run on 2026/08/28 at 19:10:18.930     
------------------------------------------------------------------------
 total:
 * wall-time:     0 d,  0 h,  0 min,  4.730 sec
 *  cpu-time:     0 d,  0 h,  0 min,  4.522 sec
 * ratio c/w:     0.956 speedup
 SCF:
 * wall-time:     0 d,  0 h,  0 min,  0.155 sec
 *  cpu-time:     0 d,  0 h,  0 min,  0.138 sec
 * ratio c/w:     0.892 speedup
 ANC optimizer:
 * wall-time:     0 d,  0 h,  0 min,  4.538 sec
 *  cpu-time:     0 d,  0 h,  0 min,  4.361 sec
 * ratio c/w:     0.961 speedup

