      -----------------------------------------------------------      
     |                   =====================                   |     
     |                           x T B                           |     
     |                   =====================                   |     
     |                         S. Grimme                         |     
     |          Mulliken Center for Theoretical Chemistry        |     
     |                    University of Bonn                     |     
      -----------------------------------------------------------      

   * xtb version 6.7.1 (unknown) compiled by 'root@buildkitsandbox' on 2026-08-28

   xtb is free software: you can redistribute it and/or modify it under
   the terms of the GNU Lesser General Public License as published by
   the Free Software Foundation, either version 3 of the License, or
   (at your option) any later version.
   
   xtb is distributed in the hope that it will be useful,
   but WITHOUT ANY WARRANTY; without even the implied warranty of
   MERCHANTABILITY or FITNESS FOR A PARTICULAR PURPOSE.  See the
   GNU Lesser General Public License for more details.
   
   Cite this work as:
   * C. Bannwarth, E. Caldeweyher, S. Ehlert, A. Hansen, P. Pracht,
     J. Seibert, S. Spicher, S. Grimme, WIREs Comput. Mol. Sci., 2020, 11,
     e01493. DOI: 10.1002/wcms.1493
   
   for GFN2-xTB:
   * C. Bannwarth, S. Ehlert and S. Grimme., J. Chem. Theory Comput., 2019,
     15, 1652-1671. DOI: 10.1021/acs.jctc.8b01176
   for GFN1-xTB:
   * S. Grimme, C. Bannwarth, P. Shushkov, J. Chem. Theory Comput., 2017,
     13, 1989-2009. DOI: 10.1021/acs.jctc.7b00118
   for GFN0-xTB:
   * P. Pracht, E. Caldeweyher, S. Ehlert, S. Grimme, ChemRxiv, 2019, preprint.
     DOI: 10.26434/chemrxiv.8326202.v1
   for GFN-FF:
   * S. Spicher and S. Grimme, Angew. Chem. Int. Ed., 2020, 59, 15665-15673.
     DOI: 10.1002/anie.202004239
   
   for ALPB and GBSA implicit solvation:
   * S. Ehlert, M. Stahn, S. Spicher, S. Grimme, J. Chem. Theory Comput.,
     2021, 17, 4250-4261. DOI: 10.1021/acs.jctc.1c00471
   
   for ddCOSMO and CPCM-X implicit solvation:
   * M. Stahn, S. Ehlert, S. Grimme, J. Phys. Chem. A,
     2023, XX, XXXX-XXXX. DOI: 10.1021/acs.jpca.3c04382
   
   for DFT-D4:
   * E. Caldeweyher, C. Bannwarth and S. Grimme, J. Chem. Phys., 2017,
     147, 034112. DOI: 10.1063/1.4993215
   * E. Caldeweyher, S. Ehlert, A. Hansen, H. Neugebauer, S. Spicher,
     C. Bannwarth and S. Grimme, J. Chem. Phys., 2019, 150, 154122.
     DOI: 10.1063/1.5090222
   * E. Caldeweyher, J.-M. Mewes, S. Ehlert and S. Grimme, Phys. Chem. Chem. Phys.
     2020, 22, 8499-8512. DOI: 10.1039/D0CP00502A
   
   for sTDA-xTB:
   * S. Grimme and C. Bannwarth, J. Chem. Phys., 2016, 145, 054103.
     DOI: 10.1063/1.4959605
   
   in the mass-spec context:
   * V. Asgeirsson, C. Bauer and S. Grimme, Chem. Sci., 2017, 8, 4879.
     DOI: 10.1039/c7sc00601b
   * J. Koopman and S. Grimme, ACS Omega 2019, 4, 12, 15120-15133.
     DOI: 10.1021/acsomega.9b02011
   
   for metadynamics refer to:
   * S. Grimme, J. Chem. Theory Comput., 2019, 155, 2847-2862
     DOI: 10.1021/acs.jctc.9b00143
   
   for SPH calculations refer to:
   * S. Spicher and S. Grimme, J. Chem. Theory Comput., 2021, 17, 1701-1714
     DOI: 10.1021/acs.jctc.0c01306
   
   for ONIOM refer to:
   * C. Plett, A. Katbashev, S. Ehlert, S. Grimme, M. Bursch,
     Phys. Chem. Chem. Phys., 2023, 25, 17860-17868. DOI: 10.1039/D3CP02178E
   
   for DIPRO refer to:
   * J. Kohn, N. Gildemeister, S. Grimme, D. Fazzi, A. Hansen,
     J. Chem. Phys. 159, 144106 (2023). DOI: 10.1063/5.0167484
   
   for PTB refer to:
   * S. Grimme, M. Mueller, A. Hansen, J. Chem. Phys., 2023, 158, 124111.
     DOI: 10.1063/5.0137838
   
   with help from (in alphabetical order)
   P. Atkinson, C. Bannwarth, F. Bohle, G. Brandenburg, E. Caldeweyher,
   M. Checinski, S. Dohm, S. Ehlert, S. Ehrlich, M. Friede, T. Froitzheim,
   I. Gerasimov, C. Hölzer, A. Katbashev, J. Kohn, J. Koopman, C. Lavigne,
   S. Lehtola, F. März, M. Müller, F. Musil, H. Neugebauer, J. Pisarek,
   C. Plett, P. Pracht, F. Pultar, J. Seibert, P. Shushkov, S. Spicher,
   M. Stahn, M. Steiner, T. Strunk, J. Stückrath, T. Rose, and J. Unsleber
   
 * started run on 2026/08/28 at 19:13:52.971     
   ID    Z sym.   atoms
    1    8 O      1, 4, 7, 8, 10, 13, 15, 17, 19, 21, 23
    2    6 C      2, 3, 5, 6, 9, 11, 12, 14, 16, 18, 20, 22
    3    1 H      24-45

           -------------------------------------------------
          |                Calculation Setup                |
           -------------------------------------------------

          program call               : xtb opt.xyz --gfn 2 --hess --norestart
          hostname                   : 756d39058c4f
          coordinate file            : opt.xyz
          random seed                :            1339240844


           -------------------------------------------------
          |                 G F N 2 - x T B                 |
           -------------------------------------------------

        Reference                      10.1021/acs.jctc.8b01176
      * Hamiltonian:
        H0-scaling (s, p, d)           1.850000    2.230000    2.230000
        zeta-weighting                 0.500000
      * Dispersion:
        s8                             2.700000
        a1                             0.520000
        a2                             5.000000
        s9                             5.000000
      * Repulsion:
        kExp                           1.500000    1.000000
        rExp                           1.000000
      * Coulomb:
        alpha                          2.000000
        third order                    shell-resolved
        anisotropic                    true
        a3                             3.000000
        a5                             4.000000
        cn-shift                       1.200000
        cn-exp                         4.000000
        max-rad                        5.000000


          ...................................................
          :                      SETUP                      :
          :.................................................:
          :  # basis functions                 114          :
          :  # atomic orbitals                 114          :
          :  # shells                           68          :
          :  # electrons                       136          :
          :  max. iterations                   250          :
          :  Hamiltonian                  GFN2-xTB          :
          :  restarted?                      false          :
          :  GBSA solvation                  false          :
          :  PC potential                    false          :
          :  electronic temp.          300.0000000     K    :
          :  accuracy                    1.0000000          :
          :  -> integral cutoff          0.2500000E+02      :
          :  -> integral neglect         0.1000000E-07      :
          :  -> SCF convergence          0.1000000E-05 Eh   :
          :  -> wf. convergence          0.1000000E-03 e    :
          :  Broyden damping             0.4000000          :
          :  net charge                          0          :
          :  unpaired electrons                  0          :
          ...................................................

 iter      E             dE          RMSdq      gap      omega  full diag
   1    -82.1808667 -0.821809E+02  0.452E+00    9.71       0.0  T
   2    -82.2412038 -0.603371E-01  0.249E+00    9.51       1.0  T
   3    -82.2429387 -0.173496E-02  0.673E-01    9.53       1.0  T
   4    -82.2444109 -0.147216E-02  0.140E-01    9.49       1.0  T
   5    -82.2446042 -0.193270E-03  0.679E-02    9.53       1.0  T
   6    -82.2446226 -0.184534E-04  0.174E-02    9.54       1.0  T
   7    -82.2446243 -0.165760E-05  0.688E-03    9.54       2.2  T
   8    -82.2446247 -0.463851E-06  0.188E-03    9.54       7.9  T
   9    -82.2446248 -0.184555E-07  0.717E-04    9.54      20.8  T
  10    -82.2446248 -0.532741E-08  0.197E-04    9.54      75.7  T

   *** convergence criteria satisfied after 10 iterations ***

         #    Occupation            Energy/Eh            Energy/eV
      -------------------------------------------------------------
         1        2.0000           -0.7414168             -20.1750
       ...           ...                  ...                  ...
        62        2.0000           -0.4342789             -11.8173
        63        2.0000           -0.4255928             -11.5810
        64        2.0000           -0.4220941             -11.4858
        65        2.0000           -0.4189585             -11.4004
        66        2.0000           -0.4172270             -11.3533
        67        2.0000           -0.4092178             -11.1354
        68        2.0000           -0.4034316             -10.9779 (HOMO)
        69                         -0.0528746              -1.4388 (LUMO)
        70                         -0.0406098              -1.1050
        71                         -0.0144866              -0.3942
        72                          0.0029342               0.0798
        73                          0.0121153               0.3297
       ...                                ...                  ...
       114                          0.3214666               8.7476
      -------------------------------------------------------------
                  HL-Gap            0.3505570 Eh            9.5391 eV
             Fermi-level           -0.2281531 Eh           -6.2084 eV

 SCC (total)                   0 d,  0 h,  0 min,  0.144 sec
 SCC setup                      ...        0 min,  0.002 sec (  1.504%)
 Dispersion                     ...        0 min,  0.003 sec (  2.029%)
 classical contributions        ...        0 min,  0.000 sec (  0.037%)
 integral evaluation            ...        0 min,  0.015 sec ( 10.422%)
 iterations                     ...        0 min,  0.090 sec ( 62.785%)
 molecular gradient             ...        0 min,  0.030 sec ( 20.550%)
 printout                       ...        0 min,  0.004 sec (  2.652%)

         :::::::::::::::::::::::::::::::::::::::::::::::::::::
         ::                     SUMMARY                     ::
         :::::::::::::::::::::::::::::::::::::::::::::::::::::
         :: total energy             -81.661896992625 Eh    ::
         :: gradient norm              0.000634291938 Eh/a0 ::
         :: HOMO-LUMO gap              9.539142196493 eV    ::
         ::.................................................::
         :: SCC energy               -82.242970410513 Eh    ::
         :: -> isotropic ES            0.245561335447 Eh    ::
         :: -> anisotropic ES         -0.014966144624 Eh    ::
         :: -> anisotropic XC         -0.018273773640 Eh    ::
         :: -> dispersion             -0.047189290676 Eh    ::
         :: repulsion energy           0.581073417888 Eh    ::
         :: add. restraining           0.000000000000 Eh    ::
         :: total charge               0.000000000000 e     ::
         :::::::::::::::::::::::::::::::::::::::::::::::::::::

           ------------------------------------------------- 
          |                Numerical Hessian                |
           ------------------------------------------------- 
step length          :   0.00500
SCC accuracy         :   0.30000
Hessian scale factor :   1.00000
frozen atoms in %    :   0.00000    0
RMS gradient         :   0.00063
estimated CPU  time      0.36 min
estimated wall time      0.36 min

writing file <hessian>, containing the non-mass-weighted Hessian matrix in atomic units (Eₕ/Bohr²).

 projected vibrational frequencies (cm⁻¹)
eigval :       -0.00    -0.00    -0.00    -0.00     0.00     0.00
eigval :       38.55    53.22    59.45    73.96    75.42    85.70
eigval :       90.59    99.36   112.97   137.36   142.96   173.04
eigval :      178.45   197.03   214.98   227.70   234.77   242.75
eigval :      250.77   261.72   273.76   288.88   321.60   334.05
eigval :      348.49   360.62   366.29   391.34   406.77   410.13
eigval :      417.22   432.20   444.54   457.19   481.00   485.04
eigval :      496.72   499.18   523.41   534.46   555.12   582.38
eigval :      639.63   652.12   672.59   688.80   738.93   837.94
eigval :      888.44   900.27   923.26   932.52   935.38   951.32
eigval :     1011.50  1018.18  1025.34  1036.40  1043.97  1049.89
eigval :     1066.66  1070.63  1074.84  1085.05  1094.59  1099.59
eigval :     1106.00  1113.50  1120.91  1124.64  1128.91  1136.79
eigval :     1149.12  1163.27  1170.59  1180.40  1189.56  1200.69
eigval :     1202.31  1212.40  1220.25  1226.02  1231.13  1242.17
eigval :     1261.42  1264.01  1274.98  1282.04  1284.21  1289.91
eigval :     1293.83  1300.15  1303.27  1308.05  1321.68  1326.55
eigval :     1336.13  1337.91  1339.68  1348.37  1350.39  1353.95
eigval :     1356.69  1359.03  1446.66  1457.57  1481.65  2854.46
eigval :     2873.90  2886.50  2890.63  2893.39  2898.56  2912.82
eigval :     2919.24  2938.84  2940.82  2946.36  2948.23  2958.08
eigval :     3003.79  3371.02  3478.59  3498.78  3518.71  3523.10
eigval :     3527.16  3544.67  3552.91
           -------------------------------------------------
          |                Property Printout                |
           -------------------------------------------------

    * Orbital Energies and Occupations

         #    Occupation            Energy/Eh            Energy/eV
      -------------------------------------------------------------
         1        2.0000           -0.7414158             -20.1750
       ...           ...                  ...                  ...
        56        2.0000           -0.4629364             -12.5971
        57        2.0000           -0.4538451             -12.3498
        58        2.0000           -0.4512112             -12.2781
        59        2.0000           -0.4480217             -12.1913
        60        2.0000           -0.4459393             -12.1346
        61        2.0000           -0.4352629             -11.8441
        62        2.0000           -0.4342789             -11.8173
        63        2.0000           -0.4255931             -11.5810
        64        2.0000           -0.4220947             -11.4858
        65        2.0000           -0.4189592             -11.4005
        66        2.0000           -0.4172273             -11.3533
        67        2.0000           -0.4092180             -11.1354
        68        2.0000           -0.4034314             -10.9779 (HOMO)
        69                         -0.0528747              -1.4388 (LUMO)
        70                         -0.0406094              -1.1050
        71                         -0.0144865              -0.3942
        72                          0.0029342               0.0798
        73                          0.0121158               0.3297
        74                          0.0160497               0.4367
        75                          0.0289451               0.7876
        76                          0.0338842               0.9220
        77                          0.0393561               1.0709
        78                          0.0461894               1.2569
        79                          0.0514963               1.4013
       ...                                ...                  ...
       114                          0.3214669               8.7476
      -------------------------------------------------------------
                  HL-Gap            0.3505567 Eh            9.5391 eV
             Fermi-level           -0.2281530 Eh           -6.2084 eV

     #   Z          covCN         q      C6AA      α(0)
     1   8          1.655    -0.451    21.871     6.313
     2   6          3.674     0.072    19.606     6.345
     3   6          3.774     0.093    19.064     6.221
     4   8          1.701    -0.349    19.869     6.018
     5   6          3.712     0.263    16.697     5.839
     6   6          3.674     0.065    19.705     6.361
     7   8          1.656    -0.449    21.817     6.305
     8   8          1.704    -0.346    19.818     6.011
     9   6          3.635     0.239    17.234     5.974
    10   8          1.701    -0.342    19.746     5.999
    11   6          3.747     0.091    19.140     6.240
    12   6          3.677     0.070    19.625     6.347
    13   8          1.656    -0.429    21.417     6.247
    14   6          3.728     0.094    19.113     6.242
    15   8          1.656    -0.450    21.841     6.309
    16   6          3.729     0.088    19.219     6.258
    17   8          1.656    -0.451    21.870     6.313
    18   6          3.728     0.085    19.255     6.265
    19   8          1.656    -0.439    21.629     6.278
    20   6          3.744     0.098    19.027     6.222
    21   8          1.656    -0.436    21.569     6.269
    22   6          3.746     0.104    18.929     6.206
    23   8          1.657    -0.436    21.566     6.269
    24   1          0.804     0.319     0.666     1.282
    25   1          0.924     0.037     2.489     2.467
    26   1          0.924     0.060     2.203     2.321
    27   1          0.923     0.053     2.281     2.362
    28   1          0.924     0.039     2.467     2.456
    29   1          0.924     0.051     2.304     2.374
    30   1          0.805     0.308     0.698     1.312
    31   1          0.923     0.046     2.370     2.408
    32   1          0.924     0.063     2.166     2.301
    33   1          0.923     0.037     2.486     2.466
    34   1          0.924     0.071     2.072     2.251
    35   1          0.805     0.302     0.716     1.329
    36   1          0.923     0.055     2.261     2.352
    37   1          0.805     0.323     0.656     1.272
    38   1          0.923     0.052     2.291     2.367
    39   1          0.805     0.311     0.690     1.304
    40   1          0.924     0.056     2.246     2.344
    41   1          0.805     0.317     0.671     1.287
    42   1          0.923     0.027     2.623     2.533
    43   1          0.805     0.319     0.667     1.283
    44   1          0.923     0.060     2.203     2.321
    45   1          0.805     0.311     0.688     1.303

 Mol. C6AA /au·bohr⁶  :      16985.807188
 Mol. C8AA /au·bohr⁸  :     364217.811424
 Mol. α(0) /au        :        186.548669


Wiberg/Mayer (AO) data.
largest (>0.10) Wiberg bond orders for each atom

 ---------------------------------------------------------------------------
     #   Z sym  total        # sym  WBO       # sym  WBO       # sym  WBO
 ---------------------------------------------------------------------------
     1   8      1.961 --     2      1.019    24      0.853
     2   6      3.965 --     1      1.019     3      0.974    25      0.972
                            26      0.966
     3   6      3.936 --    22      0.975     2      0.974    27      0.959
                             4      0.945
     4   8      2.080 --     5      0.974     3      0.945
     5   6      3.922 --     4      0.974     6      0.967     8      0.952
                            20      0.936
     6   6      3.955 --     7      0.998    28      0.968     5      0.967
                            29      0.964
     7   8      1.951 --     6      0.998    30      0.891
     8   8      2.104 --     9      0.960     5      0.952
     9   6      3.923 --    10      0.988     8      0.960    18      0.948
                            31      0.946
    10   8      2.090 --     9      0.988    11      0.948
    11   6      3.935 --    12      0.978    14      0.974    32      0.948
                            10      0.948
    12   6      3.961 --    13      1.015    11      0.978    34      0.968
                            33      0.967
    13   8      1.969 --    12      1.015    35      0.891
    14   6      3.955 --    15      0.989    11      0.974    16      0.972
                            36      0.955
    15   8      1.979 --    14      0.989    37      0.879
    16   6      3.958 --    17      0.993    14      0.972    18      0.964
                            38      0.949
    17   8      1.951 --    16      0.993    39      0.884
    18   6      3.962 --    19      1.009    16      0.964    40      0.960
                             9      0.948
    19   8      1.972 --    18      1.009    41      0.878
    20   6      3.963 --    21      1.014    22      0.963    42      0.955
                             5      0.936
    21   8      1.966 --    20      1.014    43      0.875
    22   6      3.959 --    23      1.006     3      0.975    20      0.963
                            44      0.954
    23   8      1.965 --    22      1.006    45      0.888
    24   1      0.898 --     1      0.853
    25   1      0.998 --     2      0.972
    26   1      0.996 --     2      0.966
    27   1      0.997 --     3      0.959
    28   1      0.998 --     6      0.968
    29   1      0.997 --     6      0.964
    30   1      0.905 --     7      0.891
    31   1      0.997 --     9      0.946
    32   1      0.996 --    11      0.948
    33   1      0.998 --    12      0.967
    34   1      0.994 --    12      0.968
    35   1      0.909 --    13      0.891
    36   1      0.997 --    14      0.955
    37   1      0.896 --    15      0.879
    38   1      0.997 --    16      0.949
    39   1      0.903 --    17      0.884
    40   1      0.996 --    18      0.960
    41   1      0.899 --    19      0.878
    42   1      0.999 --    20      0.955
    43   1      0.898 --    21      0.875
    44   1      0.996 --    22      0.954
    45   1      0.903 --    23      0.888
 ---------------------------------------------------------------------------

Topologies differ in total number of bonds
Writing topology from bond orders to xtbtopo.mol

molecular dipole:
                 x           y           z       tot (Debye)
 q only:       -0.666       0.592      -0.534
   full:       -1.091       1.025      -1.053       4.652
molecular quadrupole (traceless):
                xx          xy          yy          xz          yz          zz
 q only:      -11.639       7.422      -1.004       2.063       0.035      12.644
  q+dip:      -17.518      11.344      -1.047      -0.900       1.291      18.565
   full:      -18.325      12.144      -1.307      -0.383       1.988      19.632

           -------------------------------------------------
          |               Frequency Printout                |
           -------------------------------------------------
 projected vibrational frequencies (cm⁻¹)
eigval :       -0.00    -0.00    -0.00    -0.00     0.00     0.00
eigval :       38.55    53.22    59.45    73.96    75.42    85.70
eigval :       90.59    99.36   112.97   137.36   142.96   173.04
eigval :      178.45   197.03   214.98   227.70   234.77   242.75
eigval :      250.77   261.72   273.76   288.88   321.60   334.05
eigval :      348.49   360.62   366.29   391.34   406.77   410.13
eigval :      417.22   432.20   444.54   457.19   481.00   485.04
eigval :      496.72   499.18   523.41   534.46   555.12   582.38
eigval :      639.63   652.12   672.59   688.80   738.93   837.94
eigval :      888.44   900.27   923.26   932.52   935.38   951.32
eigval :     1011.50  1018.18  1025.34  1036.40  1043.97  1049.89
eigval :     1066.66  1070.63  1074.84  1085.05  1094.59  1099.59
eigval :     1106.00  1113.50  1120.91  1124.64  1128.91  1136.79
eigval :     1149.12  1163.27  1170.59  1180.40  1189.56  1200.69
eigval :     1202.31  1212.40  1220.25  1226.02  1231.13  1242.17
eigval :     1261.42  1264.01  1274.98  1282.04  1284.21  1289.91
eigval :     1293.83  1300.15  1303.27  1308.05  1321.68  1326.55
eigval :     1336.13  1337.91  1339.68  1348.37  1350.39  1353.95
eigval :     1356.69  1359.03  1446.66  1457.57  1481.65  2854.46
eigval :     2873.90  2886.50  2890.63  2893.39  2898.56  2912.82
eigval :     2919.24  2938.84  2940.82  2946.36  2948.23  2958.08
eigval :     3003.79  3371.02  3478.59  3498.78  3518.71  3523.10
eigval :     3527.16  3544.67  3552.91
 reduced masses (amu)
    1:      7.01    2:      7.09    3:      6.68    4:      7.45    5:      7.10    6:      6.76
    7:      5.41    8:      6.17    9:      6.30   10:      7.61   11:      6.44   12:      4.99
   13:      6.34   14:      5.66   15:      5.52   16:      5.99   17:      6.63   18:      4.85
   19:      4.88   20:      4.25   21:      3.96   22:      2.97   23:      3.50   24:      3.65
   25:      3.92   26:      3.78   27:      3.75   28:      1.20   29:      2.74   30:      3.00
   31:      1.27   32:      6.23   33:      1.44   34:      2.32   35:      1.65   36:      2.75
   37:      2.39   38:      2.09   39:      2.27   40:      1.37   41:      1.58   42:      2.16
   43:      2.25   44:      1.58   45:      4.51   46:      4.26   47:      3.68   48:      5.29
   49:      6.85   50:      4.19   51:      4.15   52:      4.59   53:      6.67   54:      4.63
   55:      3.17   56:      1.95   57:      2.03   58:      2.53   59:      2.76   60:      2.61
   61:      3.91   62:      3.64   63:      3.89   64:      2.97   65:      3.82   66:      3.00
   67:      2.09   68:      4.11   69:      1.93   70:      5.19   71:      2.88   72:      3.67
   73:      3.45   74:      4.00   75:      3.10   76:      3.75   77:      4.46   78:      2.86
   79:      2.21   80:      3.51   81:      1.40   82:      1.43   83:      1.46   84:      1.26
   85:      1.21   86:      1.27   87:      1.27   88:      1.26   89:      1.31   90:      1.44
   91:      1.37   92:      1.40   93:      1.29   94:      1.32   95:      1.23   96:      1.26
   97:      1.41   98:      1.37   99:      1.23  100:      1.20  101:      1.33  102:      1.35
  103:      1.34  104:      1.32  105:      1.31  106:      1.36  107:      1.63  108:      1.53
  109:      1.48  110:      1.51  111:      1.07  112:      1.08  113:      1.07  114:      1.07
  115:      1.07  116:      1.07  117:      1.07  118:      1.07  119:      1.07  120:      1.08
  121:      1.09  122:      1.08  123:      1.08  124:      1.05  125:      1.05  126:      1.08
  127:      1.07  128:      1.07  129:      1.07  130:      1.07  131:      1.07  132:      1.07
  133:      1.07  134:      1.07  135:      1.07
 IR intensities (km·mol⁻¹)
    1:      0.14    2:      0.09    3:      0.40    4:      0.10    5:      0.03    6:      0.20
    7:      0.78    8:      2.20    9:      0.39   10:      0.78   11:      2.54   12:      2.02
   13:      4.87   14:      0.11   15:      3.31   16:      4.70   17:      2.31   18:      2.65
   19:      2.75   20:      3.32   21:      4.16   22:      8.20   23:      7.60   24:      4.23
   25:     14.77   26:     16.98   27:      4.18   28:     67.52   29:      6.88   30:     15.74
   31:     38.12   32:     13.61   33:    104.58   34:     47.89   35:    132.10   36:    190.47
   37:    148.81   38:    242.36   39:     16.33   40:     64.97   41:     55.30   42:     92.54
   43:     60.01   44:     94.59   45:     14.18   46:     11.24   47:     30.34   48:      1.23
   49:      2.94   50:      7.12   51:      7.96   52:     16.19   53:      1.38   54:     30.97
   55:     26.72   56:     12.41   57:      3.54   58:      9.06   59:     33.05   60:     41.01
   61:     38.48   62:    199.60   63:    123.59   64:      2.67   65:     75.88   66:      7.57
   67:      5.76   68:    126.94   69:     18.28   70:    143.74   71:    115.21   72:     91.85
   73:     69.45   74:     79.28   75:    106.08   76:     23.97   77:     30.72   78:    135.99
   79:     41.26   80:    126.74   81:     11.26   82:     10.61   83:      9.07   84:     37.72
   85:     42.83   86:     15.14   87:     25.68   88:    117.06   89:     33.75   90:     57.34
   91:     51.81   92:     50.76   93:     46.04   94:     22.96   95:     39.20   96:     16.03
   97:     12.01   98:     18.15   99:     24.21  100:     22.90  101:     54.38  102:      4.34
  103:     31.51  104:     86.15  105:     27.29  106:     73.02  107:     33.49  108:     26.41
  109:      5.85  110:      2.95  111:      1.97  112:      2.12  113:      5.55  114:     52.13
  115:      7.51  116:     36.93  117:     31.11  118:     63.96  119:     17.62  120:     33.73
  121:     53.85  122:     33.55  123:     14.26  124:     37.81  125:     24.92  126:     32.47
  127:     11.11  128:    296.97  129:     40.97  130:     49.17  131:     35.09  132:     37.43
  133:     19.89  134:     23.17  135:     20.16
 Raman intensities (Ä⁴*amu⁻¹)
    1:      0.00    2:      0.00    3:      0.00    4:      0.00    5:      0.00    6:      0.00
    7:      0.00    8:      0.00    9:      0.00   10:      0.00   11:      0.00   12:      0.00
   13:      0.00   14:      0.00   15:      0.00   16:      0.00   17:      0.00   18:      0.00
Refinement of some symmetry elements was terminated before convergence was reached.
Some symmetry elements may remain unidentified.
Molecule has no symmetry elements
It seems to be the C1 point group
   19:      0.00   20:      0.00   21:      0.00   22:      0.00   23:      0.00   24:      0.00
   25:      0.00   26:      0.00   27:      0.00   28:      0.00   29:      0.00   30:      0.00
   31:      0.00   32:      0.00   33:      0.00   34:      0.00   35:      0.00   36:      0.00
   37:      0.00   38:      0.00   39:      0.00   40:      0.00   41:      0.00   42:      0.00
   43:      0.00   44:      0.00   45:      0.00   46:      0.00   47:      0.00   48:      0.00
   49:      0.00   50:      0.00   51:      0.00   52:      0.00   53:      0.00   54:      0.00
   55:      0.00   56:      0.00   57:      0.00   58:      0.00   59:      0.00   60:      0.00
   61:      0.00   62:      0.00   63:      0.00   64:      0.00   65:      0.00   66:      0.00
   67:      0.00   68:      0.00   69:      0.00   70:      0.00   71:      0.00   72:      0.00
   73:      0.00   74:      0.00   75:      0.00   76:      0.00   77:      0.00   78:      0.00
   79:      0.00   80:      0.00   81:      0.00   82:      0.00   83:      0.00   84:      0.00
   85:      0.00   86:      0.00   87:      0.00   88:      0.00   89:      0.00   90:      0.00
   91:      0.00   92:      0.00   93:      0.00   94:      0.00   95:      0.00   96:      0.00
   97:      0.00   98:      0.00   99:      0.00  100:      0.00  101:      0.00  102:      0.00
  103:      0.00  104:      0.00  105:      0.00  106:      0.00  107:      0.00  108:      0.00
  109:      0.00  110:      0.00  111:      0.00  112:      0.00  113:      0.00  114:      0.00
  115:      0.00  116:      0.00  117:      0.00  118:      0.00  119:      0.00  120:      0.00
  121:      0.00  122:      0.00  123:      0.00  124:      0.00  125:      0.00  126:      0.00
  127:      0.00  128:      0.00  129:      0.00  130:      0.00  131:      0.00  132:      0.00
  133:      0.00  134:      0.00  135:      0.00
 output can be read by thermo (or use thermo option).
 writing <g98.out> molden fake output.
 recommended (thermochemical) frequency scaling factor: 1.0
           -------------------------------------------------
          |             Thermodynamic Functions             |
           -------------------------------------------------

c1  symmetry found (for desy threshold:  0.10E+00) used in thermo

          ...................................................
          :                      SETUP                      :
          :.................................................:
          :  # frequencies                         129      :
          :  # imaginary freq.                       0      :
          :  linear?                             false      :
          :  only rotor calc.                    false      :
          :  symmetry                               c1      :
          :  rotational number                       1      :
          :  scaling factor                  1.0000000      :
          :  rotor cutoff                   50.0000000 cm⁻¹ :
          :  imag. cutoff                  -20.0000000 cm⁻¹ :
          :.................................................:

    mode    ω/cm⁻¹     T·S(HO)/kcal·mol⁻¹    T·S(FR)/kcal·mol⁻¹   T·S(vib)
   ------------------------------------------------------------------------
       1     38.55    -1.58978 ( 26.11%)    -1.13352 ( 73.89%)    -1.25266
       2     53.22    -1.39954 ( 56.20%)    -1.03803 ( 43.80%)    -1.24122
       3     59.45    -1.33430 ( 66.66%)    -1.00521 ( 33.34%)    -1.22457
       4     73.96    -1.20603 ( 82.72%)    -0.94053 ( 17.28%)    -1.16016
       5     75.42    -1.19459 ( 83.81%)    -0.93475 ( 16.19%)    -1.15252
       6     85.70    -1.11982 ( 89.62%)    -0.89690 ( 10.38%)    -1.09667
       7     90.59    -1.08741 ( 91.51%)    -0.88045 (  8.49%)    -1.06984
       8     99.36    -1.03364 ( 93.97%)    -0.85309 (  6.03%)    -1.02276
       9    112.97    -0.95923 ( 96.30%)    -0.81507 (  3.70%)    -0.95390
      10    137.36    -0.84683 ( 98.27%)    -0.75715 (  1.73%)    -0.84528
      11    142.96    -0.82406 ( 98.53%)    -0.74532 (  1.47%)    -0.82290
Note: The following floating-point exceptions are signalling: IEEE_UNDERFLOW_FLAG
normal termination of xtb
      12    173.04    -0.71621 ( 99.31%)    -0.68875 (  0.69%)    -0.71602
      13    178.45    -0.69905 ( 99.39%)    -0.67964 (  0.61%)    -0.69893
      14    197.03    -0.64419 ( 99.59%)    -0.65029 (  0.41%)    -0.64422
      15    214.98    -0.59659 ( 99.71%)    -0.62447 (  0.29%)    -0.59668
      16    227.70    -0.56558 ( 99.77%)    -0.60743 (  0.23%)    -0.56568
      17    234.77    -0.54924 ( 99.79%)    -0.59837 (  0.21%)    -0.54934
      18    242.75    -0.53149 ( 99.82%)    -0.58848 (  0.18%)    -0.53159
      19    250.77    -0.51435 ( 99.84%)    -0.57884 (  0.16%)    -0.51445
      20    261.72    -0.49203 ( 99.87%)    -0.56619 (  0.13%)    -0.49213
      21    273.76    -0.46879 ( 99.89%)    -0.55286 (  0.11%)    -0.46889
      22    288.88    -0.44142 ( 99.91%)    -0.53694 (  0.09%)    -0.44150
   ------------------------------------------------------------------------

   temp. (K)  partition function   enthalpy   heat capacity  entropy
                                   cal/mol     cal/K/mol   cal/K/mol   J/K/mol
 298.15  VIB  0.526E+09            13471.021     85.317     82.566
         ROT  0.700E+07              888.727      2.981     34.302
         INT  0.368E+16            14359.749     88.298    116.868
         TR   0.194E+27             1481.212      4.968     43.386
         TOT                       15840.9611    93.2658   160.2542   670.5035

       T/K    H(0)-H(T)+PV         H(T)/Eh          T*S/Eh         G(T)/Eh
   ------------------------------------------------------------------------
    298.15    0.252442E-01    0.379445E+00    0.761419E-01    0.303303E+00
   ------------------------------------------------------------------------

         :::::::::::::::::::::::::::::::::::::::::::::::::::::
         ::                  THERMODYNAMIC                  ::
         :::::::::::::::::::::::::::::::::::::::::::::::::::::
         :: total free energy         -81.358593638432 Eh   ::
         ::.................................................::
         :: total energy              -81.661896992904 Eh   ::
         :: zero point energy           0.354201111784 Eh   ::
         :: G(RRHO) w/o ZPVE           -0.050897757313 Eh   ::
         :: G(RRHO) contrib.            0.303303354472 Eh   ::
         :::::::::::::::::::::::::::::::::::::::::::::::::::::

           -------------------------------------------------
          | TOTAL ENERGY              -81.661896992904 Eh   |
          | TOTAL ENTHALPY            -81.282451702728 Eh   |
          | TOTAL FREE ENERGY         -81.358593638432 Eh   |
          | GRADIENT NORM               0.000634304365 Eh/α |
          | HOMO-LUMO GAP               9.539132932818 eV   |
           -------------------------------------------------

------------------------------------------------------------------------
 * finished run on 2026/08/28 at 19:14:11.581     
------------------------------------------------------------------------
 total:
 * wall-time:     0 d,  0 h,  0 min, 18.600 sec
 *  cpu-time:     0 d,  0 h,  0 min, 18.417 sec
 * ratio c/w:     0.990 speedup
 SCF:
 * wall-time:     0 d,  0 h,  0 min,  0.144 sec
 *  cpu-time:     0 d,  0 h,  0 min,  0.135 sec
 * ratio c/w:     0.934 speedup
 analytical hessian:
 * wall-time:     0 d,  0 h,  0 min, 18.360 sec
 *  cpu-time:     0 d,  0 h,  0 min, 18.244 sec
 * ratio c/w:     0.994 speedup

